! Created with skrf 2.1.0 (http://scikit-rf.org).
# GHz S RI R 50.0 
!freq ReS11 ImS11 ReS21 ImS21 ReS12 ImS12 ReS22 ImS22
0.01 0.0 0.0 1.4982214269834646 -0.01256045393348988 1.4982214269834646 -0.01256045393348988 0.0 0.0
0.059975 0.0 0.0 1.493886501354888 -0.07517495891470416 1.493886501354888 -0.07517495891470416 0.0 0.0
0.10995 0.0 0.0 1.4879412457515437 -0.1375411273342645 1.4879412457515437 -0.1375411273342645 0.0 0.0
0.159925 0.0 0.0 1.4797105238463615 -0.19958385584000324 1.4797105238463615 -0.19958385584000324 0.0 0.0
0.2099 0.0 0.0 1.4690673767925087 -0.26120924426390557 1.4690673767925087 -0.26120924426390557 0.0 0.0
0.259875 0.0 0.0 1.4559721448806546 -0.32231834113300906 1.4559721448806546 -0.32231834113300906 0.0 0.0
0.30985 0.0 0.0 1.4404173015811856 -0.38281039767221614 1.4404173015811856 -0.38281039767221614 0.0 0.0
0.359825 0.0 0.0 1.422411995954693 -0.44258422756638255 1.422411995954693 -0.44258422756638255 0.0 0.0
0.4098 0.0 0.0 1.4019761085480267 -0.5015389527207814 1.4019761085480267 -0.5015389527207814 0.0 0.0
0.459775 0.0 0.0 1.3791374958374036 -0.5595744920211914 1.3791374958374036 -0.5595744920211914 0.0 0.0
0.50975 0.0 0.0 1.3539305332669729 -0.6165919240253979 1.3539305332669729 -0.6165919240253979 0.0 0.0
0.559725 0.0 0.0 1.3263952602301792 -0.6724937803178588 1.3263952602301792 -0.6724937803178588 0.0 0.0
0.6097 0.0 0.0 1.2965768308165235 -0.7271842970729484 1.2965768308165235 -0.7271842970729484 0.0 0.0
0.659675 0.0 0.0 1.2645251305380185 -0.7805696393486239 1.2645251305380185 -0.7805696393486239 0.0 0.0
0.70965 0.0 0.0 1.2302944875576447 -0.8325581062488279 1.2302944875576447 -0.8325581062488279 0.0 0.0
0.759625 0.0 0.0 1.1939434394813206 -0.8830603217273736 1.1939434394813206 -0.8830603217273736 0.0 0.0
0.8096 0.0 0.0 1.1555345333916383 -0.9319894139252608 1.1555345333916383 -0.9319894139252608 0.0 0.0
0.859575 0.0 0.0 1.115134145786993 -0.9792611848313859 1.115134145786993 -0.9792611848313859 0.0 0.0
0.90955 0.0 0.0 1.0728123141876669 -1.0247942713853586 1.0728123141876669 -1.0247942713853586 0.0 0.0
0.959525 0.0 0.0 1.028642575184087 -1.0685102987190809 1.028642575184087 -1.0685102987190809 0.0 0.0
1.0095 0.0 0.0 0.9827018055486907 -1.1103340259614654 0.9827018055486907 -1.1103340259614654 0.0 0.0
1.059475 0.0 0.0 0.9350700641998912 -1.1501934848514914 0.9350700641998912 -1.1501934848514914 0.0 0.0
1.10945 0.0 0.0 0.8858304335653231 -1.1880201112852455 0.8858304335653231 -1.1880201112852455 0.0 0.0
1.159425 0.0 0.0 0.8350688593973536 -1.2237488698421934 0.8350688593973536 -1.2237488698421934 0.0 0.0
1.2094 0.0 0.0 0.7828739884389451 -1.2573183712819216 0.7828739884389451 -1.2573183712819216 0.0 0.0
1.259375 0.0 0.0 0.7293370035783971 -1.2886709829667007 0.7293370035783971 -1.2886709829667007 0.0 0.0
1.30935 0.0 0.0 0.6745514563024182 -1.3177529321420567 0.6745514563024182 -1.3177529321420567 0.0 0.0
1.359325 0.0 0.0 0.6186130963806603 -1.3445144019934585 0.6186130963806603 -1.3445144019934585 0.0 0.0
1.4093 0.0 0.0 0.5616196988059317 -1.368909620389756 0.5616196988059317 -1.368909620389756 0.0 0.0
1.459275 0.0 0.0 0.5036708880824219 -1.3908969412213938 0.5036708880824219 -1.3908969412213938 0.0 0.0
1.50925 0.0 0.0 0.4448679600059899 -1.410438918242467 0.4448679600059899 -1.410438918242467 0.0 0.0
1.559225 0.0 0.0 0.3853137011203095 -1.427502371329501 0.3853137011203095 -1.427502371329501 0.0 0.0
1.6092 0.0 0.0 0.32511220606358926 -1.4420584450757608 0.32511220606358926 -1.4420584450757608 0.0 0.0
1.659175 0.0 0.0 0.2643686930448573 -1.4540826596474883 0.2643686930448573 -1.4540826596474883 0.0 0.0
1.70915 0.0 0.0 0.20318931770798204 -1.4635549538373243 0.20318931770798204 -1.4635549538373243 0.0 0.0
1.759125 0.0 0.0 0.14168098565681753 -1.4704597202600733 0.14168098565681753 -1.4704597202600733 0.0 0.0
1.8091 0.0 0.0 0.07995116392696293 -1.4747858326466454 0.07995116392696293 -1.4747858326466454 0.0 0.0
1.859075 0.0 0.0 0.018107691699147874 -1.4765266652033446 0.018107691699147874 -1.4765266652033446 0.0 0.0
1.90905 0.0 0.0 -0.043741409443265364 -1.4756801040154943 -0.043741409443265364 -1.4756801040154943 0.0 0.0
1.959025 0.0 0.0 -0.10548812540446378 -1.472248550486611 -0.10548812540446378 -1.472248550486611 0.0 0.0
2.009 0.0 0.0 -0.16702463930164618 -1.4662389168168573 -0.16702463930164618 -1.4662389168168573 0.0 0.0
2.058975 0.0 0.0 -0.22824352071043752 -1.457662613537248 -0.22824352071043752 -1.457662613537248 0.0 0.0
2.10895 0.0 0.0 -0.2890379141131595 -1.446535529128986 -0.2890379141131595 -1.446535529128986 0.0 0.0
2.158925 0.0 0.0 -0.3493017262321235 -1.4328780017703195 -0.3493017262321235 -1.4328780017703195 0.0 0.0
2.2089 0.0 0.0 -0.4089298119303303 -1.416714783266355 -0.4089298119303303 -1.416714783266355 0.0 0.0
2.258875 0.0 0.0 -0.4678181583630009 -1.398074995230346 -0.4678181583630009 -1.398074995230346 0.0 0.0
2.30885 0.0 0.0 -0.5258640670652481 -1.376992077597997 -0.5258640670652481 -1.376992077597997 0.0 0.0
2.358825 0.0 0.0 -0.582966333663829 -1.3535037295692858 -0.582966333663829 -1.3535037295692858 0.0 0.0
2.4088 0.0 0.0 -0.6390254249042321 -1.3276518430851745 -0.6390254249042321 -1.3276518430851745 0.0 0.0
2.458775 0.0 0.0 -0.693943652688387 -1.2994824289592848 -0.693943652688387 -1.2994824289592848 0.0 0.0
2.50875 0.0 0.0 -0.7476253448229324 -1.269045535797178 -0.7476253448229324 -1.269045535797178 0.0 0.0
2.558725 0.0 0.0 -0.799977012183256 -1.2363951618482263 -0.799977012183256 -1.2363951618482263 0.0 0.0
2.6087 0.0 0.0 -0.8509075120043945 -1.201589159947198 -0.8509075120043945 -1.201589159947198 0.0 0.0
2.658675 0.0 0.0 -0.9003282070163223 -1.1646891357145568 -0.9003282070163223 -1.1646891357145568 0.0 0.0
2.70865 0.0 0.0 -0.9481531201481346 -1.1257603391960949 -0.9481531201481346 -1.1257603391960949 0.0 0.0
2.758625 0.0 0.0 -0.9942990845331676 -1.0848715501338106 -0.9942990845331676 -1.0848715501338106 0.0 0.0
2.8086 0.0 0.0 -1.0386858885551007 -1.0420949570709503 -1.0386858885551007 -1.0420949570709503 0.0 0.0
2.858575 0.0 0.0 -1.0812364156836103 -0.9975060305047659 -1.0812364156836103 -0.9975060305047659 0.0 0.0
2.90855 0.0 0.0 -1.1218767788571058 -0.9511833903108469 -1.1218767788571058 -0.9511833903108469 0.0 0.0
2.958525 0.0 0.0 -1.160536449179523 -0.9032086676727555 -1.160536449179523 -0.9032086676727555 0.0 0.0
3.0085 0.0 0.0 -1.1971483787079762 -0.8536663617602347 -1.1971483787079762 -0.8536663617602347 0.0 0.0
3.058475 0.0 0.0 -1.2316491171183437 -0.8026436914083181 -1.2316491171183437 -0.8026436914083181 0.0 0.0
3.10845 0.0 0.0 -1.2639789220465014 -0.7502304420583217 -1.2639789220465014 -0.7502304420583217 0.0 0.0
3.158425 0.0 0.0 -1.2940818629139215 -0.6965188082299064 -1.2940818629139215 -0.6965188082299064 0.0 0.0
3.2084 0.0 0.0 -1.3219059180577117 -0.6416032318011261 -1.3219059180577117 -0.6416032318011261 0.0 0.0
3.258375 0.0 0.0 -1.347403064996846 -0.585580236380609 -1.347403064996846 -0.585580236380609 0.0 0.0
3.30835 0.0 0.0 -1.37052936367831 -0.5285482580628176 -1.37052936367831 -0.5285482580628176 0.0 0.0
3.358325 0.0 0.0 -1.391245032559145 -0.4706074728635293 -1.391245032559145 -0.4706074728635293 0.0 0.0
3.4083 0.0 0.0 -1.4095145173928914 -0.4118596211384497 -1.4095145173928914 -0.4118596211384497 0.0 0.0
3.458275 0.0 0.0 -1.4253065526016595 -0.35240782929307546 -1.4253065526016595 -0.35240782929307546 0.0 0.0
3.50825 0.0 0.0 -1.4385942151280395 -0.2923564290965597 -1.4385942151280395 -0.2923564290965597 0.0 0.0
3.558225 0.0 0.0 -1.4493549706741908 -0.23181077491648025 -1.4493549706741908 -0.23181077491648025 0.0 0.0
3.6082 0.0 0.0 -1.4575707122487576 -0.1708770591949864 -1.4575707122487576 -0.1708770591949864 0.0 0.0
3.658175 0.0 0.0 -1.4632277909557185 -0.10966212648977637 -1.4632277909557185 -0.10966212648977637 0.0 0.0
3.70815 0.0 0.0 -1.4663170389728384 -0.04827328640582583 -1.4663170389728384 -0.04827328640582583 0.0 0.0
3.758125 0.0 0.0 -1.4668337846810393 0.013181874254327347 -1.4668337846810393 0.013181874254327347 0.0 0.0
3.8081 0.0 0.0 -1.4647778599197503 0.074595679792677 -1.4647778599197503 0.074595679792677 0.0 0.0
3.858075 0.0 0.0 -1.4601535993570478 0.1358605540403824 -1.4601535993570478 0.1358605540403824 0.0 0.0
3.90805 0.0 0.0 -1.4529698319771995 0.19686920857498016 -1.4529698319771995 0.19686920857498016 0.0 0.0
3.958025 0.0 0.0 -1.4432398647019993 0.2575148304006333 -1.4432398647019993 0.2575148304006333 0.0 0.0
4.008 0.0 0.0 -1.4309814581760423 0.3176912687628699 -1.4309814581760423 0.3176912687628699 0.0 0.0
4.057975 0.0 0.0 -1.4162167947597848 0.3772932207708505 -1.4162167947597848 0.3772932207708505 0.0 0.0
4.10795 0.0 0.0 -1.3989724387878557 0.4362164155023465 -1.3989724387878557 0.4362164155023465 0.0 0.0
4.157925 0.0 0.0 -1.3792792891636139 0.49435779626933174 -1.3792792891636139 0.49435779626933174 0.0 0.0
4.2079 0.0 0.0 -1.3571725243743382 0.5516157007253406 -1.3571725243743382 0.5516157007253406 0.0 0.0
4.257875 0.0 0.0 -1.3326915400246775 0.6078900384996384 -1.3326915400246775 0.6078900384996384 0.0 0.0
4.30785 0.0 0.0 -1.3058798789990758 0.6630824660475687 -1.3058798789990758 0.6630824660475687 0.0 0.0
4.357825 0.0 0.0 -1.2767851543767603 0.7170965584114136 -1.2767851543767603 0.7170965584114136 0.0 0.0
4.4078 0.0 0.0 -1.245458965235538 0.769837977591555 -1.245458965235538 0.769837977591555 0.0 0.0
4.457775 0.0 0.0 -1.211956805493076 0.8212146372337048 -1.211956805493076 0.8212146372337048 0.0 0.0
4.50775 0.0 0.0 -1.1763379659465034 0.8711368633444729 -1.1763379659465034 0.8711368633444729 0.0 0.0
4.557725 0.0 0.0 -1.138665429683038 0.9195175507545559 -1.138665429683038 0.9195175507545559 0.0 0.0
4.6077 0.0 0.0 -1.0990057610459236 0.9662723150563128 -1.0990057610459236 0.9662723150563128 0.0 0.0
4.657675 0.0 0.0 -1.0574289883512198 1.011319639750458 -1.0574289883512198 1.011319639750458 0.0 0.0
4.70765 0.0 0.0 -1.0140084805618792 1.0545810183450477 -1.0140084805618792 1.0545810183450477 0.0 0.0
4.757625 0.0 0.0 -0.9688208181360918 1.0959810911588173 -0.9688208181360918 1.0959810911588173 0.0 0.0
4.8076 0.0 0.0 -0.9219456582770555 1.1354477765902198 -0.9219456582770555 1.1354477765902198 0.0 0.0
4.857575 0.0 0.0 -0.8734655948210694 1.172912396623278 -0.8734655948210694 1.172912396623278 0.0 0.0
4.90755 0.0 0.0 -0.8234660130102152 1.2083097963514597 -0.8234660130102152 1.2083097963514597 0.0 0.0
4.957525 0.0 0.0 -0.7720349394047941 1.24157845731132 -0.7720349394047941 1.24157845731132 0.0 0.0
5.0075 0.0 0.0 -0.7192628871991603 1.2726606044285136 -0.7192628871991603 1.2726606044285136 0.0 0.0
5.057475 0.0 0.0 -0.6652426972125873 1.3015023063900104 -0.6652426972125873 1.3015023063900104 0.0 0.0
5.10745 0.0 0.0 -0.6100693748343526 1.3280535692678614 -0.6100693748343526 1.3280535692678614 0.0 0.0
5.157425 0.0 0.0 -0.5538399232092299 1.3522684232317546 -0.5538399232092299 1.3522684232317546 0.0 0.0
5.2074 0.0 0.0 -0.49665317295613987 1.3741050021996788 -0.49665317295613987 1.3741050021996788 0.0 0.0
5.257375 0.0 0.0 -0.43860960871873567 1.3935256162884342 -0.43860960871873567 1.3935256162884342 0.0 0.0
5.30735 0.0 0.0 -0.37981119285217546 1.4104968169383538 -0.37981119285217546 1.4104968169383538 0.0 0.0
5.357325 0.0 0.0 -0.3203611865552988 1.4249894545994426 -0.3203611865552988 1.4249894545994426 0.0 0.0
5.4073 0.0 0.0 -0.2603639687618986 1.436978728879186 -0.2603639687618986 1.436978728879186 0.0 0.0
5.457275 0.0 0.0 -0.1999248531085694 1.4464442310655028 -0.1999248531085694 1.4464442310655028 0.0 0.0
5.50725 0.0 0.0 -0.13914990329999294 1.4533699789516792 -0.13914990329999294 1.4533699789516792 0.0 0.0
5.557225 0.0 0.0 -0.07814574719526379 1.4577444439036094 -0.07814574719526379 1.4577444439036094 0.0 0.0
5.6072 0.0 0.0 -0.017019389941024143 1.4595605701232706 -0.017019389941024143 1.4595605701232706 0.0 0.0
5.657175 0.0 0.0 0.04412197352121142 1.458815786076028 0.04412197352121142 1.458815786076028 0.0 0.0
5.70715 0.0 0.0 0.10517114624503363 1.4555120080630977 0.10517114624503363 1.4555120080630977 0.0 0.0
5.757125 0.0 0.0 0.16602111703760689 1.4496556359342425 0.16602111703760689 1.4496556359342425 0.0 0.0
5.8071 0.0 0.0 0.22656524785773735 1.4412575409495638 0.22656524785773735 1.4412575409495638 0.0 0.0
5.857075 0.0 0.0 0.28669746052547695 1.4303330458129726 0.28669746052547695 1.4303330458129726 0.0 0.0
5.90705 0.0 0.0 0.34631242241640353 1.4169018969136464 0.34631242241640353 1.4169018969136464 0.0 0.0
5.957025 0.0 0.0 0.4053057308155119 1.4009882288254212 0.4053057308155119 1.4009882288254212 0.0 0.0
6.007 0.0 0.0 0.46357409560814156 1.3826205211275944 0.46357409560814156 1.3826205211275944 0.0 0.0
6.056975 0.0 0.0 0.5210155199882216 1.361831547624093 0.5210155199882216 1.361831547624093 0.0 0.0
6.10695 0.0 0.0 0.5775294788677621 1.3386583180512082 0.5775294788677621 1.3386583180512082 0.0 0.0
6.156925 0.0 0.0 0.633017094675441 1.3131420123772992 0.633017094675441 1.3131420123772992 0.0 0.0
6.2069 0.0 0.0 0.6873813102369297 1.2853279078107736 0.6873813102369297 1.2853279078107736 0.0 0.0
6.256875 0.0 0.0 0.7405270584346403 1.2552652986454214 0.7405270584346403 1.2552652986454214 0.0 0.0
6.30685 0.0 0.0 0.7923614283502761 1.2230074090847391 0.7923614283502761 1.2230074090847391 0.0 0.0
6.356825 0.0 0.0 0.842793827599859 1.1886112991990798 0.842793827599859 1.1886112991990798 0.0 0.0
6.4068 0.0 0.0 0.8917361405775217 1.1521377641815451 0.8917361405775217 1.1521377641815451 0.0 0.0
6.456775 0.0 0.0 0.9391028823316274 1.1136512270801853 0.9391028823316274 1.1136512270801853 0.0 0.0
6.50675 0.0 0.0 0.9848113478044311 1.0732196251955253 0.9848113478044311 1.0732196251955253 0.0 0.0
6.556725 0.0 0.0 1.0287817561747146 1.0309142903434332 1.0287817561747146 1.0309142903434332 0.0 0.0
6.6067 0.0 0.0 1.070937390051391 0.9868098231941265 1.070937390051391 0.9868098231941265 0.0 0.0
6.656675 0.0 0.0 1.1112047292751328 0.9409839619084345 1.1112047292751328 0.9409839619084345 0.0 0.0
6.70665 0.0 0.0 1.1495135790946565 0.8935174453023171 1.1495135790946565 0.8935174453023171 0.0 0.0
6.756625 0.0 0.0 1.1857971924940167 0.8444938707803414 1.1857971924940167 0.8444938707803414 0.0 0.0
6.8066 0.0 0.0 1.2199923864577187 0.7939995472877643 1.2199923864577187 0.7939995472877643 0.0 0.0
6.856575 0.0 0.0 1.2520396519709878 0.7421233435396907 1.2520396519709878 0.7421233435396907 0.0 0.0
6.90655 0.0 0.0 1.2818832575635972 0.6889565317939363 1.2818832575635972 0.6889565317939363 0.0 0.0
6.956525 0.0 0.0 1.3094713462169798 0.6345926274420124 1.3094713462169798 0.6345926274420124 0.0 0.0
7.0065 0.0 0.0 1.3347560254660011 0.5791272246999302 1.3347560254660011 0.5791272246999302 0.0 0.0
7.056475 0.0 0.0 1.357693450538729 0.5226578286872864 1.357693450538729 0.5226578286872864 0.0 0.0
7.10645 0.0 0.0 1.3782439003897258 0.46528368418944593 1.3782439003897258 0.46528368418944593 0.0 0.0
7.156425 0.0 0.0 1.396371846494919 0.40710560140324753 1.396371846494919 0.40710560140324753 0.0 0.0
7.2064 0.0 0.0 1.4120460142887232 0.3482257789721111 1.4120460142887232 0.3482257789721111 0.0 0.0
7.256375 0.0 0.0 1.4252394371370753 0.28874762462091924 1.4252394371370753 0.28874762462091924 0.0 0.0
7.30635 0.0 0.0 1.435929502753081 0.22877557370531248 1.435929502753081 0.22877557370531248 0.0 0.0
7.356325 0.0 0.0 1.4440979919752472 0.16841490599364645 1.4440979919752472 0.16841490599364645 0.0 0.0
7.4063 0.0 0.0 1.4497311098416634 0.10777156100283213 1.4497311098416634 0.10777156100283213 0.0 0.0
7.456275 0.0 0.0 1.4528195089069982 0.04695195221183595 1.4528195089069982 0.04695195221183595 0.0 0.0
7.50625 0.0 0.0 1.4533583047627743 -0.013937219521526344 1.4533583047627743 -0.013937219521526344 0.0 0.0
7.556225 0.0 0.0 1.4513470837350528 -0.07478915301344095 1.4513470837350528 -0.07478915301344095 0.0 0.0
7.6062 0.0 0.0 1.4467899027473625 -0.13549713394890373 1.4467899027473625 -0.13549713394890373 0.0 0.0
7.656175 0.0 0.0 1.4396952813504358 -0.1959547218904375 1.4396952813504358 -0.1959547218904375 0.0 0.0
7.70615 0.0 0.0 1.4300761859340383 -0.25605593677313015 1.4300761859340383 -0.25605593677313015 0.0 0.0
7.756125 0.0 0.0 1.4179500061498698 -0.31569544455941007 1.4179500061498698 -0.31569544455941007 0.0 0.0
7.8061 0.0 0.0 1.4033385235881557 -0.37476874172835806 1.4033385235881557 -0.37476874172835806 0.0 0.0
7.856075 0.0 0.0 1.3862678727641082 -0.4331723382765891 1.3862678727641082 -0.4331723382765891 0.0 0.0
7.90605 0.0 0.0 1.366768494483909 -0.49080393891030516 1.366768494483909 -0.49080393891030516 0.0 0.0
7.956025 0.0 0.0 1.3448750816731925 -0.54756262211138 1.3448750816731925 -0.54756262211138 0.0 0.0
8.006 0.0 0.0 1.3206265177642098 -0.6033490167641 1.3206265177642098 -0.6033490167641 0.0 0.0
8.055975 0.0 0.0 1.2940658077508707 -0.6580654760335054 1.2940658077508707 -0.6580654760335054 0.0 0.0
8.10595 0.0 0.0 1.2652400020336851 -0.7116162481911619 1.2652400020336851 -0.7116162481911619 0.0 0.0
8.155925 0.0 0.0 1.234200113189261 -0.7639076440895247 1.234200113189261 -0.7639076440895247 0.0 0.0
8.2059 0.0 0.0 1.2010010258113395 -0.8148482009920934 1.2010010258113395 -0.8148482009920934 0.0 0.0
8.255875 0.0 0.0 1.1657013995825318 -0.8643488424728423 1.1657013995825318 -0.8643488424728423 0.0 0.0
8.30585 0.0 0.0 1.1283635657477016 -0.9123230341054585 1.1283635657477016 -0.9123230341054585 0.0 0.0
8.355825 0.0 0.0 1.089053417171485 -0.9586869346702935 1.089053417171485 -0.9586869346702935 0.0 0.0
8.4058 0.0 0.0 1.04784029217368 -1.0033595426148074 1.04784029217368 -1.0033595426148074 0.0 0.0
8.455775 0.0 0.0 1.0047968523470645 -1.0462628375116976 1.0047968523470645 -1.0462628375116976 0.0 0.0
8.50575 0.0 0.0 0.9599989545727451 -1.0873219162676597 0.9599989545727451 -1.0873219162676597 0.0 0.0
8.555725 0.0 0.0 0.9135255174582484 -1.126465123845002 0.9135255174582484 -1.126465123845002 0.0 0.0
8.6057 0.0 0.0 0.8654583824333474 -1.1636241782679302 0.8654583824333474 -1.1636241782679302 0.0 0.0
8.655675 0.0 0.0 0.8158821697478571 -1.1987342896954587 0.8158821697478571 -1.1987342896954587 0.0 0.0
8.70565 0.0 0.0 0.7648841296246183 -1.23173427335324 0.7648841296246183 -1.23173427335324 0.0 0.0
8.755625 0.0 0.0 0.7125539888292903 -1.2625666561274467 0.7125539888292903 -1.2625666561274467 0.0 0.0
8.8056 0.0 0.0 0.6589837929265393 -1.2911777766349901 0.6589837929265393 -1.2911777766349901 0.0 0.0
8.855575 0.0 0.0 0.6042677444998028 -1.317517878595763 0.6042677444998028 -1.317517878595763 0.0 0.0
8.90555 0.0 0.0 0.5485020376187497 -1.3415411973444162 0.5485020376187497 -1.3415411973444162 0.0 0.0
8.955525 0.0 0.0 0.491784688845155 -1.3632060393311873 0.491784688845155 -1.3632060393311873 0.0 0.0
9.0055 0.0 0.0 0.43421536507388336 -1.3824748544736278 0.43421536507388336 -1.3824748544736278 0.0 0.0
9.055475 0.0 0.0 0.3758952085112165 -1.3993143012336038 0.3758952085112165 -1.3993143012336038 0.0 0.0
9.10545 0.0 0.0 0.3169266590976789 -1.413695304306735 0.3169266590976789 -1.413695304306735 0.0 0.0
9.155425 0.0 0.0 0.25741327468698566 -1.4255931048243862 0.25741327468698566 -1.4255931048243862 0.0 0.0
9.2054 0.0 0.0 0.19745954929662413 -1.4349873029814497 0.19745954929662413 -1.4349873029814497 0.0 0.0
9.255375 0.0 0.0 0.1371707297488459 -1.441861893016476 0.1371707297488459 -1.441861893016476 0.0 0.0
9.30535 0.0 0.0 0.0766526310237264 -1.4462052904840825 0.0766526310237264 -1.4462052904840825 0.0 0.0
9.355325 0.0 0.0 0.016011450648043688 -1.448010351773116 0.016011450648043688 -1.448010351773116 0.0 0.0
9.4053 0.0 0.0 -0.04464641755455331 -1.4472743858376256 -0.04464641755455331 -1.4472743858376256 0.0 0.0
9.455275 0.0 0.0 -0.10521457002559201 -1.4439991581213514 -0.10521457002559201 -1.4439991581213514 0.0 0.0
9.50525 0.0 0.0 -0.16558678001901136 -1.4381908866701314 -0.16558678001901136 -1.4381908866701314 0.0 0.0
9.555225 0.0 0.0 -0.22565718380667815 -1.4298602304403008 -0.22565718380667815 -1.4298602304403008 0.0 0.0
9.6052 0.0 0.0 -0.28532046621589374 -1.4190222698248462 -0.28532046621589374 -1.4190222698248462 0.0 0.0
9.655175 0.0 0.0 -0.34447204517380126 -1.4056964794327071 -0.34447204517380126 -1.4056964794327071 0.0 0.0
9.70515 0.0 0.0 -0.40300825493549997 -1.3899066931701765 -0.40300825493549997 -1.3899066931701765 0.0 0.0
9.755125 0.0 0.0 -0.4608265276748458 -1.3716810616868622 -0.4608265276748458 -1.3716810616868622 0.0 0.0
9.8051 0.0 0.0 -0.5178255731200373 -1.3510520022620083 -0.5178255731200373 -1.3510520022620083 0.0 0.0
9.855075 0.0 0.0 -0.5739055559194154 -1.328056141220232 -0.5739055559194154 -1.328056141220232 0.0 0.0
9.90505 0.0 0.0 -0.628968270426997 -1.302734248978811 -0.628968270426997 -1.302734248978811 0.0 0.0
9.955025 0.0 0.0 -0.6829173126018178 -1.2751311678415378 -0.6829173126018178 -1.2751311678415378 0.0 0.0
10.005 0.0 0.0 -0.7356582487202615 -1.2452957326668708 -0.7356582487202615 -1.2452957326668708 0.0 0.0
10.054975 0.0 0.0 -0.7870987806062013 -1.2132806845505573 -0.7870987806062013 -1.2132806845505573 0.0 0.0
10.10495 0.0 0.0 -0.837148907089869 -1.1791425776751663 -0.837148907089869 -1.1791425776751663 0.0 0.0
10.154925 0.0 0.0 -0.8857210814131359 -1.1429416794908447 -0.8857210814131359 -1.1429416794908447 0.0 0.0
10.2049 0.0 0.0 -0.9327303643059028 -1.1047418644033618 -0.9327303643059028 -1.1047418644033618 0.0 0.0
10.254875 0.0 0.0 -0.978094572466003 -1.0646105011568059 -0.978094572466003 -1.0646105011568059 0.0 0.0
10.30485 0.0 0.0 -1.0217344221831244 -1.0226183341093145 -1.0217344221831244 -1.0226183341093145 0.0 0.0
10.354825 0.0 0.0 -1.0635736678557643 -0.9788393586109235 -1.0635736678557643 -0.9788393586109235 0.0 0.0
10.4048 0.0 0.0 -1.103539235159242 -0.9333506907029039 -1.103539235159242 -0.9333506907029039 0.0 0.0
10.454775 0.0 0.0 -1.1415613486322103 -0.8862324313678764 -1.1415613486322103 -0.8862324313678764 0.0 0.0
10.50475 0.0 0.0 -1.1775736534589138 -0.8375675255695173 -1.1775736534589138 -0.8375675255695173 0.0 0.0
10.554725 0.0 0.0 -1.21151333123465 -0.7874416163297545 -1.21151333123465 -0.7874416163297545 0.0 0.0
10.6047 0.0 0.0 -1.2433212095124708 -0.7359428941000197 -1.2433212095124708 -0.7359428941000197 0.0 0.0
10.654675 0.0 0.0 -1.2729418649400976 -0.683161941691321 -1.2729418649400976 -0.683161941691321 0.0 0.0
10.70465 0.0 0.0 -1.300323719807252 -0.6291915750356785 -1.300323719807252 -0.6291915750356785 0.0 0.0
10.754625 0.0 0.0 -1.325419131835243 -0.5741266800586644 -1.325419131835243 -0.5741266800586644 0.0 0.0
10.8046 0.0 0.0 -1.3481844770524591 -0.518064045949635 -1.3481844770524591 -0.518064045949635 0.0 0.0
10.854575 0.0 0.0 -1.3685802256115853 -0.46110219512246475 -1.3685802256115853 -0.46110219512246475 0.0 0.0
10.90455 0.0 0.0 -1.3865710104167626 -0.4033412101653699 -1.3865710104167626 -0.4033412101653699 0.0 0.0
10.954525 0.0 0.0 -1.4021256884415099 -0.34488255808363194 -1.4021256884415099 -0.34488255808363194 0.0 0.0
11.0045 0.0 0.0 -1.4152173946310758 -0.2858289121437382 -1.4152173946310758 -0.2858289121437382 0.0 0.0
11.054475 0.0 0.0 -1.425823588295887 -0.22628397163160696 -1.425823588295887 -0.22628397163160696 0.0 0.0
11.10445 0.0 0.0 -1.4339260919159444 -0.16635227984118023 -1.4339260919159444 -0.16635227984118023 0.0 0.0
11.154425 0.0 0.0 -1.439511122289327 -0.1061390406127187 -1.439511122289327 -0.1061390406127187 0.0 0.0
11.2044 0.0 0.0 -1.4425693139713998 -0.045749933742614844 -1.4425693139713998 -0.045749933742614844 0.0 0.0
11.254375 0.0 0.0 -1.4430957349648224 0.01470907041148132 -1.4430957349648224 0.01470907041148132 0.0 0.0
11.30435 0.0 0.0 -1.4410898946340769 0.07513189680515264 -1.4410898946340769 0.07513189680515264 0.0 0.0
11.354325 0.0 0.0 -1.436555743831835 0.1354125517353685 -1.436555743831835 0.1354125517353685 0.0 0.0
11.4043 0.0 0.0 -1.4295016672381524 0.19544530869620114 -1.4295016672381524 0.19544530869620114 0.0 0.0
11.454275 0.0 0.0 -1.4199404679271277 0.25512489373626596 -1.4199404679271277 0.25512489373626596 0.0 0.0
11.50425 0.0 0.0 -1.4078893441892797 0.31434666999311367 -1.4078893441892797 0.31434666999311367 0.0 0.0
11.554225 0.0 0.0 -1.3933698586514724 0.3730068210811162 -1.3933698586514724 0.3730068210811162 0.0 0.0
11.6042 0.0 0.0 -1.3764078997497082 0.43100253301158353 -1.3764078997497082 0.43100253301158353 0.0 0.0
11.654175 0.0 0.0 -1.357033635623504 0.4882321743264183 -1.357033635623504 0.4882321743264183 0.0 0.0
11.70415 0.0 0.0 -1.3352814605138523 0.5445954741297592 -1.3352814605138523 0.5445954741297592 0.0 0.0
11.754125 0.0 0.0 -1.3111899337598731 0.5999936977058811 -1.3111899337598731 0.5999936977058811 0.0 0.0
11.8041 0.0 0.0 -1.284801711502246 0.6543298194158098 -1.284801711502246 0.6543298194158098 0.0 0.0
11.854075 0.0 0.0 -1.2561634712142689 0.7075086925699777 -1.2561634712142689 0.7075086925699777 0.0 0.0
11.90405 0.0 0.0 -1.2253258291939408 0.7594372159795724 -1.2253258291939408 0.7594372159795724 0.0 0.0
11.954025 0.0 0.0 -1.192343251162798 0.8100244968951009 -1.192343251162798 0.8100244968951009 0.0 0.0
12.004 0.0 0.0 -1.157273956129279 0.8591820100470684 -1.157273956129279 0.8591820100470684 0.0 0.0
12.053975 0.0 0.0 -1.1201798136861936 0.9068237525105394 -1.1201798136861936 0.9068237525105394 0.0 0.0
12.10395 0.0 0.0 -1.081126234923335 0.9528663941227269 -1.081126234923335 0.9528663941227269 0.0 0.0
12.153925 0.0 0.0 -1.0401820571474785 0.9972294231905541 -1.0401820571474785 0.9972294231905541 0.0 0.0
12.2039 0.0 0.0 -0.997419422612775 1.039835287233482 -0.997419422612775 1.039835287233482 0.0 0.0
12.253875 0.0 0.0 -0.9529136514750887 1.0806095285155881 -0.9529136514750887 1.0806095285155881 0.0 0.0
12.30385 0.0 0.0 -0.9067431091938677 1.1194809141300726 -0.9067431091938677 1.1194809141300726 0.0 0.0
12.353825 0.0 0.0 -0.8589890686148576 1.1563815604089636 -0.8589890686148576 1.1563815604089636 0.0 0.0
12.4038 0.0 0.0 -0.8097355669762791 1.1912470514407365 -0.8097355669762791 1.1912470514407365 0.0 0.0
12.453775 0.0 0.0 -0.7590692580899118 1.2240165514889698 -0.7590692580899118 1.2240165514889698 0.0 0.0
12.50375 0.0 0.0 -0.707079259956967 1.2546329111158594 -0.707079259956967 1.2546329111158594 0.0 0.0
12.553725 0.0 0.0 -0.6538569980866205 1.2830427668254638 -0.6538569980866205 1.2830427668254638 0.0 0.0
12.6037 0.0 0.0 -0.5994960447925528 1.309196634052951 -0.5994960447925528 1.309196634052951 0.0 0.0
12.653675 0.0 0.0 -0.5440919547498243 1.3330489933378353 -0.5440919547498243 1.3330489933378353 0.0 0.0
12.70365 0.0 0.0 -0.4877420971009825 1.3545583695311163 -0.4877420971009825 1.3545583695311163 0.0 0.0
12.753625 0.0 0.0 -0.4305454844062871 1.373687403898489 -0.4305454844062871 1.373687403898489 0.0 0.0
12.8036 0.0 0.0 -0.372602598738373 1.3904029189942964 -0.372602598738373 1.3904029189942964 0.0 0.0
12.853575 0.0 0.0 -0.31401521522676556 1.4046759761935133 -0.31401521522676556 1.4046759761935133 0.0 0.0
12.90355 0.0 0.0 -0.254886223361928 1.4164819257820271 -0.254886223361928 1.4164819257820271 0.0 0.0
12.953525 0.0 0.0 -0.19531944637251447 1.4258004495184715 -0.19531944637251447 1.4258004495184715 0.0 0.0
13.0035 0.0 0.0 -0.13541945899282742 1.4326155955941156 -0.13541945899282742 1.4326155955941156 0.0 0.0
13.053475 0.0 0.0 -0.07529140394018005 1.4369158059306395 -0.07529140394018005 1.4369158059306395 0.0 0.0
13.10345 0.0 0.0 -0.015040807424169106 1.4386939357690653 -0.015040807424169106 1.4386939357690653 0.0 0.0
13.153425 0.0 0.0 0.04522660598853914 1.437947265516641 0.04522660598853914 1.437947265516641 0.0 0.0
13.2034 0.0 0.0 0.10540509882920344 1.4346775048320441 0.10540509882920344 1.4346775048320441 0.0 0.0
13.253375 0.0 0.0 0.1653891061765827 1.428890788942892 0.1653891061765827 1.428890788942892 0.0 0.0
13.30335 0.0 0.0 0.22507342077589604 1.420597667203154 0.22507342077589604 1.420597667203154 0.0 0.0
13.353325 0.0 0.0 0.28435337750267065 1.409813083911674 0.28435337750267065 1.409813083911674 0.0 0.0
13.4033 0.0 0.0 0.34312503684813805 1.3965563514265686 0.34312503684813805 1.3965563514265686 0.0 0.0
13.453275 0.0 0.0 0.4012853671045641 1.380851115623773 0.4012853671045641 1.380851115623773 0.0 0.0
13.50325 0.0 0.0 0.4587324249313105 1.362725313761422 0.4587324249313105 1.362725313761422 0.0 0.0
13.553225 0.0 0.0 0.5153655339852082 1.3422111248250561 0.5153655339852082 1.3422111248250561 0.0 0.0
13.6032 0.0 0.0 0.5710854613023675 1.3193449124418148 0.5710854613023675 1.3193449124418148 0.0 0.0
13.653175 0.0 0.0 0.6257945911224296 1.2941671604648024 0.6257945911224296 1.2941671604648024 0.0 0.0
13.70315 0.0 0.0 0.6793970958508961 1.2667224013416278 0.6793970958508961 1.2667224013416278 0.0 0.0
13.753125 0.0 0.0 0.7317991038601419 1.2370591373937847 0.7317991038601419 1.2370591373937847 0.0 0.0
13.8031 0.0 0.0 0.7829088638353434 1.205229755145933 0.7829088638353434 1.205229755145933 0.0 0.0
13.853075 0.0 0.0 0.8326369053776974 1.1712904328562868 0.8326369053776974 1.1712904328562868 0.0 0.0
13.90305 0.0 0.0 0.8808961955837946 1.1353010414112714 0.8808961955837946 1.1353010414112714 0.0 0.0
13.953025 0.0 0.0 0.9276022913272364 1.0973250387591533 0.9276022913272364 1.0973250387591533 0.0 0.0
14.003 0.0 0.0 0.9726734869760549 1.0574293580687015 0.9726734869760549 1.0574293580687015 0.0 0.0
14.052975 0.0 0.0 1.0160309572875954 1.0156842898098954 1.0160309572875954 1.0156842898098954 0.0 0.0
14.10295 0.0 0.0 1.0575988952309854 0.9721633579643194 1.0575988952309854 0.9721633579643194 0.0 0.0
14.152925 0.0 0.0 1.0973046444962509 0.9269431905831598 1.0973046444962509 0.9269431905831598 0.0 0.0
14.2029 0.0 0.0 1.135078826458503 0.8801033849205753 1.135078826458503 0.8801033849205753 0.0 0.0
14.252875 0.0 0.0 1.1708554613753202 0.8317263673797513 1.1708554613753202 0.8317263673797513 0.0 0.0
14.30285 0.0 0.0 1.2045720836056955 0.781897248517899 1.2045720836056955 0.781897248517899 0.0 0.0
14.352825 0.0 0.0 1.2361698506493015 0.7307036733652263 1.2361698506493015 0.7307036733652263 0.0 0.0
14.4028 0.0 0.0 1.2655936458157981 0.6782356673209817 1.2655936458157981 0.6782356673209817 0.0 0.0
14.452775 0.0 0.0 1.292792174345042 0.6245854778974248 1.292792174345042 0.6245854778974248 0.0 0.0
14.50275 0.0 0.0 1.3177180528105767 0.5698474125898578 1.3177180528105767 0.5698474125898578 0.0 0.0
14.552725 0.0 0.0 1.3403278916506025 0.5141176731575392 1.3403278916506025 0.5141176731575392 0.0 0.0
14.6027 0.0 0.0 1.3605823706826756 0.4574941866065835 1.3605823706826756 0.4574941866065835 0.0 0.0
14.652675 0.0 0.0 1.3784463074707052 0.40007643317172087 1.3784463074707052 0.40007643317172087 0.0 0.0
14.70265 0.0 0.0 1.3938887184253872 0.3419652715989876 1.3938887184253872 0.3419652715989876 0.0 0.0
14.752625 0.0 0.0 1.4068828725319582 0.2832627620360756 1.4068828725319582 0.2832627620360756 0.0 0.0
14.8026 0.0 0.0 1.417406337612101 0.22407198684127155 1.417406337612101 0.22407198684127155 0.0 0.0
14.852575 0.0 0.0 1.4254410190399154 0.16449686962556032 1.4254410190399154 0.16449686962556032 0.0 0.0
14.90255 0.0 0.0 1.430973190845162 0.10464199284531686 1.430973190845162 0.10464199284531686 0.0 0.0
14.952525 0.0 0.0 1.4339935191502668 0.04461241426587123 1.4339935191502668 0.04461241426587123 0.0 0.0
15.0025 0.0 0.0 1.4344970779011053 -0.015486517382235884 1.4344970779011053 -0.015486517382235884 0.0 0.0
15.052475 0.0 0.0 1.432483356865038 -0.07554934723081932 1.432483356865038 -0.07554934723081932 0.0 0.0
15.10245 0.0 0.0 1.4279562618832722 -0.13547069926128885 1.4279562618832722 -0.13547069926128885 0.0 0.0
15.152425 0.0 0.0 1.4209241073781873 -0.19514546112713785 1.4209241073781873 -0.19514546112713785 0.0 0.0
15.2024 0.0 0.0 1.411399601129849 -0.25446896848759537 1.411399601129849 -0.25446896848759537 0.0 0.0
15.252375 0.0 0.0 1.399399821349491 -0.31333718852925685 1.399399821349491 -0.31333718852925685 0.0 0.0
15.30235 0.0 0.0 1.3849461860912458 -0.3716469023539757 1.3849461860912458 -0.3716469023539757 0.0 0.0
15.352325 0.0 0.0 1.3680644150568306 -0.42929588591334356 1.3680644150568306 -0.42929588591334356 0.0 0.0
15.4023 0.0 0.0 1.3487844838612344 -0.4861830891726358 1.3487844838612344 -0.4861830891726358 0.0 0.0
15.452275 0.0 0.0 1.327140570840659 -0.542208813190308 1.327140570840659 -0.542208813190308 0.0 0.0
15.50225 0.0 0.0 1.3031709964970166 -0.5972748848027999 1.3031709964970166 -0.5972748848027999 0.0 0.0
15.552225 0.0 0.0 1.2769181556862232 -0.6512848286086008 1.2769181556862232 -0.6512848286086008 0.0 0.0
15.6022 0.0 0.0 1.2484284426701917 -0.7041440359503996 1.2484284426701917 -0.7041440359503996 0.0 0.0
15.652175 0.0 0.0 1.2177521691649655 -0.7557599305993397 1.2177521691649655 -0.7557599305993397 0.0 0.0
15.70215 0.0 0.0 1.184943475529656 -0.8060421308513486 1.184943475529656 -0.8060421308513486 0.0 0.0
15.752125 0.0 0.0 1.150060235252917 -0.8549026077516735 1.150060235252917 -0.8549026077516735 0.0 0.0
15.8021 0.0 0.0 1.1131639529053245 -0.902255839170802 1.1131639529053245 -0.902255839170802 0.0 0.0
15.852075 0.0 0.0 1.074319655737567 -0.9480189594620378 1.074319655737567 -0.9480189594620378 0.0 0.0
15.90205 0.0 0.0 1.033595779115433 -0.9921119044389028 1.033595779115433 -0.9921119044389028 0.0 0.0
15.952025 0.0 0.0 0.9910640459933071 -1.034457551418813 0.9910640459933071 -1.034457551418813 0.0 0.0
16.002 0.0 0.0 0.9467993406384023 -1.0749818540880534 0.9467993406384023 -1.0749818540880534 0.0 0.0
16.051975 0.0 0.0 0.9008795768279608 -1.1136139719522697 0.9008795768279608 -1.1136139719522697 0.0 0.0
16.10195 0.0 0.0 0.8533855607513142 -1.1502863941461952 0.8533855607513142 -1.1502863941461952 0.0 0.0
16.151925 0.0 0.0 0.8044008488579737 -1.1849350573862532 0.8044008488579737 -1.1849350573862532 0.0 0.0
16.2019 0.0 0.0 0.7540116009017268 -1.2174994578599827 0.7540116009017268 -1.2174994578599827 0.0 0.0
16.251875 0.0 0.0 0.7023064284391253 -1.2479227568568798 0.7023064284391253 -1.2479227568568798 0.0 0.0
16.30185 0.0 0.0 0.649376239048663 -1.2761518799562745 0.649376239048663 -1.2761518799562745 0.0 0.0
16.351825 0.0 0.0 0.59531407654447 -1.3021376095991393 0.59531407654447 -1.3021376095991393 0.0 0.0
16.4018 0.0 0.0 0.5402149574652187 -1.3258346708824233 0.5402149574652187 -1.3258346708824233 0.0 0.0
16.451775 0.0 0.0 0.48417570412558253 -1.3472018104263286 0.48417570412558253 -1.3472018104263286 0.0 0.0
16.50175 0.0 0.0 0.4272947745234563 -1.366201868177174 0.4272947745234563 -1.366201868177174 0.0 0.0
16.551725 0.0 0.0 0.3696720894016751 -1.3828018420208785 0.3696720894016751 -1.3828018420208785 0.0 0.0
16.6017 0.0 0.0 0.3114088567679192 -1.3969729450947068 0.3114088567679192 -1.3969729450947068 0.0 0.0
16.651675 0.0 0.0 0.25260739418092565 -1.4086906556977565 0.25260739418092565 -1.4086906556977565 0.0 0.0
16.70165 0.0 0.0 0.1933709491148945 -1.417934759713665 0.1933709491148945 -1.417934759713665 0.0 0.0
16.751625 0.0 0.0 0.13380351771748136 -1.424689385472126 0.13380351771748136 -1.424689385472126 0.0 0.0
16.8016 0.0 0.0 0.07400966227944568 -1.4289430309890985 0.07400966227944568 -1.4289430309890985 0.0 0.0
16.851575 0.0 0.0 0.014094327736178022 -1.4306885835389687 0.014094327736178022 -1.4306885835389687 0.0 0.0
16.90155 0.0 0.0 -0.04583734247687431 -1.4299233315253563 -0.04583734247687431 -1.4299233315253563 0.0 0.0
16.951525 0.0 0.0 -0.10568019089185526 -1.4266489686307848 -0.10568019089185526 -1.4266489686307848 0.0 0.0
17.0015 0.0 0.0 -0.16532923047570505 -1.4208715902389701 -0.16532923047570505 -1.4208715902389701 0.0 0.0
17.051475 0.0 0.0 -0.22467982877331186 -1.412601682137037 -0.22467982877331186 -1.412601682137037 0.0 0.0
17.10145 0.0 0.0 -0.283627891403788 -1.4018541015185069 -0.283627891403788 -1.4018541015185069 0.0 0.0
17.151425 0.0 0.0 -0.342070044588083 -1.388648050321403 -0.342070044588083 -1.388648050321403 0.0 0.0
17.2014 0.0 0.0 -0.399903816387958 -1.3730070409492545 -0.399903816387958 -1.3730070409492545 0.0 0.0
17.251375 0.0 0.0 -0.4570278163386279 -1.3549588544361364 -0.4570278163386279 -1.3549588544361364 0.0 0.0
17.30135 0.0 0.0 -0.513341913160236 -1.334535491130111 -0.513341913160236 -1.334535491130111 0.0 0.0
17.351325 0.0 0.0 -0.5687474102367411 -1.3117731139825743 -0.5687474102367411 -1.3117731139825743 0.0 0.0
17.4013 0.0 0.0 -0.6231472185547444 -1.286711984543935 -0.6231472185547444 -1.286711984543935 0.0 0.0
17.451275 0.0 0.0 -0.676446026799297 -1.2593963917788509 -0.676446026799297 -1.2593963917788509 0.0 0.0
17.50125 0.0 0.0 -0.728550468308723 -1.229874573826825 -0.728550468308723 -1.229874573826825 0.0 0.0
17.551225 0.0 0.0 -0.7793692845960447 -1.198198632846323 -0.7793692845960447 -1.198198632846323 0.0 0.0
17.6012 0.0 0.0 -0.828813485150741 -1.1644244430926367 -0.828813485150741 -1.1644244430926367 0.0 0.0
17.651175 0.0 0.0 -0.876796503240954 -1.1286115523916633 -0.876796503240954 -1.1286115523916633 0.0 0.0
17.70115 0.0 0.0 -0.9232343474435039 -1.0908230771832206 -0.9232343474435039 -1.0908230771832206 0.0 0.0
17.751125 0.0 0.0 -0.9680457486364276 -1.0511255913188724 -0.9680457486364276 -1.0511255913188724 0.0 0.0
17.8011 0.0 0.0 -1.0111523021969144 -1.009589008810071 -1.0111523021969144 -1.009589008810071 0.0 0.0
17.851075 0.0 0.0 -1.0524786051557957 -0.9662864607331014 -1.0524786051557957 -0.9662864607331014 0.0 0.0
17.90105 0.0 0.0 -1.0919523880687465 -0.9212941665074525 -1.0919523880687465 -0.9212941665074525 0.0 0.0
17.951025 0.0 0.0 -1.1295046413735714 -0.8746912997741382 -1.1295046413735714 -0.8746912997741382 0.0 0.0
18.001 0.0 0.0 -1.1650697360126814 -0.8265598491099153 -1.1650697360126814 -0.8265598491099153 0.0 0.0
18.050975 0.0 0.0 -1.1985855381099726 -0.7769844738223398 -1.1985855381099726 -0.7769844738223398 0.0 0.0
18.10095 0.0 0.0 -1.2299935175017247 -0.7260523550792485 -1.2299935175017247 -0.7260523550792485 0.0 0.0
18.150925 0.0 0.0 -1.2592388499319775 -0.6738530426343716 -1.2592388499319775 -0.6738530426343716 0.0 0.0
18.2009 0.0 0.0 -1.286270512733967 -0.6204782974184806 -1.286270512733967 -0.6204782974184806 0.0 0.0
18.250875 0.0 0.0 -1.3110413738306521 -0.5660219302726895 -1.3110413738306521 -0.5660219302726895 0.0 0.0
18.30085 0.0 0.0 -1.3335082738990918 -0.5105796371072631 -1.3335082738990918 -0.5105796371072631 0.0 0.0
18.350825 0.0 0.0 -1.3536321015554584 -0.4542488307755147 -1.3536321015554584 -0.4542488307755147 0.0 0.0
18.4008 0.0 0.0 -1.371377861429721 -0.39712846995808526 -1.371377861429721 -0.39712846995808526 0.0 0.0
18.450775 0.0 0.0 -1.3867147350115019 -0.339318885358167 -1.3867147350115019 -0.339318885358167 0.0 0.0
18.50075 0.0 0.0 -1.3996161341613558 -0.2809216035127765 -1.3996161341613558 -0.2809216035127765 0.0 0.0
18.550725 0.0 0.0 -1.410059747194528 -0.2220391685295015 -1.410059747194528 -0.2220391685295015 0.0 0.0
18.6007 0.0 0.0 -1.4180275774573439 -0.16277496206156994 -1.4180275774573439 -0.16277496206156994 0.0 0.0
18.650675 0.0 0.0 -1.4235059743295173 -0.103233021837317 -1.4235059743295173 -0.103233021837317 0.0 0.0
18.70065 0.0 0.0 -1.426485656598998 -0.04351785906241835 -1.426485656598998 -0.04351785906241835 0.0 0.0
18.750625 0.0 0.0 -1.4269617281693159 0.016265724984588677 -1.4269617281693159 0.016265724984588677 0.0 0.0
18.8006 0.0 0.0 -1.4249336860728763 0.07601282284182616 -1.4249336860728763 0.07601282284182616 0.0 0.0
18.850575 0.0 0.0 -1.4204054207771235 0.13561860491591243 -1.4204054207771235 0.13561860491591243 0.0 0.0
18.90055 0.0 0.0 -1.4133852087840295 0.19497850337336098 -1.4133852087840295 0.19497850337336098 0.0 0.0
18.950525 0.0 0.0 -1.403885697536872 0.25398839554900376 -1.403885697536872 0.25398839554900376 0.0 0.0
19.0005 0.0 0.0 -1.3919238826617604 0.31254478654978923 -1.3919238826617604 0.31254478654978923 0.0 0.0
19.050475 0.0 0.0 -1.3775210775848004 0.37054499073378644 -1.3775210775848004 0.37054499073378644 0.0 0.0
19.10045 0.0 0.0 -1.3607028755791684 0.42788731174622335 -1.3607028755791684 0.42788731174622335 0.0 0.0
19.150425 0.0 0.0 -1.3414991043096158 0.48447122079697835 -1.3414991043096158 0.48447122079697835 0.0 0.0
19.2004 0.0 0.0 -1.3199437729551082 0.540197532866999 -1.3199437729551082 0.540197532866999 0.0 0.0
19.250375 0.0 0.0 -1.296075012003256 0.5949685805349432 -1.296075012003256 0.5949685805349432 0.0 0.0
19.30035 0.0 0.0 -1.2699350058231003 0.6486883851193471 -1.2699350058231003 0.6486883851193471 0.0 0.0
19.350325 0.0 0.0 -1.241569918135422 0.701262824836532 -1.241569918135422 0.701262824836532 0.0 0.0
19.4003 0.0 0.0 -1.211029810512194 0.7525997996796877 -1.211029810512194 0.7525997996796877 0.0 0.0
19.450275 0.0 0.0 -1.178368554049007 0.802609392730335 -1.178368554049007 0.802609392730335 0.0 0.0
19.50025 0.0 0.0 -1.143643734366299 0.8512040276196277 -1.143643734366299 0.8512040276196277 0.0 0.0
19.550225 0.0 0.0 -1.1069165501067904 0.8982986218638962 -1.1069165501067904 0.8982986218638962 0.0 0.0
19.6002 0.0 0.0 -1.0682517051080458 0.9438107358058938 -1.0682517051080458 0.9438107358058938 0.0 0.0
19.650175 0.0 0.0 -1.027717294440067 0.9876607169011038 -1.027717294440067 0.9876607169011038 0.0 0.0
19.70015 0.0 0.0 -0.9853846845085639 1.029771839096619 -0.9853846845085639 1.029771839096619 0.0 0.0
19.750125 0.0 0.0 -0.9413283874349706 1.0700704370587222 -0.9413283874349706 1.0700704370587222 0.0 0.0
19.8001 0.0 0.0 -0.895625929934272 1.1084860350143557 -0.895625929934272 1.1084860350143557 0.0 0.0
19.850075 0.0 0.0 -0.8483577169213244 1.1449514699811831 -0.8483577169213244 1.1449514699811831 0.0 0.0
19.90005 0.0 0.0 -0.7996068900855223 1.179403009170821 -0.7996068900855223 1.179403009170821 0.0 0.0
19.950025 0.0 0.0 -0.7494591816825811 1.2117804613599816 -0.7494591816825811 1.2117804613599816 0.0 0.0
20.0 0.0 0.0 -0.6980027638004538 1.2420272820349658 -0.6980027638004538 1.2420272820349658 0.0 0.0
