! Created with skrf 2.1.0 (http://scikit-rf.org).
# GHz S RI R 50.0 
!freq ReS11 ImS11
!
0.01 -0.9604867477334301 0.024153140251527414
0.059975 -0.9501373664924798 0.14409375294636145
0.10995 -0.9254543590339824 0.26081835684099536
0.159925 -0.887511688306031 0.3718910282758899
0.2099 -0.8378815153339907 0.47526916725846735
0.259875 -0.7784798363889864 0.5694074437750223
0.30985 -0.7113976041446873 0.6532991790000295
0.359825 -0.6387421865229501 0.7264599229719371
0.4098 -0.562507222864746 0.7888668019199891
0.459775 -0.48448006086215445 0.8408710758965774
0.50975 -0.40618775978503624 0.8831007223244854
0.559725 -0.32887680535080793 0.9163663192229058
0.6097 -0.2535186501148332 0.94157883362032
0.659675 -0.1808325417716588 0.9596835068581475
0.70965 -0.11131801535705062 0.9716106220166156
0.759625 -0.045291092649541426 0.9782417438300856
0.8096 0.017079952886600015 0.9803888978404774
0.859575 0.07574180079813125 0.9787838168029304
0.90955 0.13072754569420042 0.9740745315126771
0.959525 0.1821328322169322 0.9668269799517576
1.0095 0.23009652866822194 0.9575297877880515
1.059475 0.2747855004842377 0.9466008369048123
1.10945 0.3163829101949041 0.9343946386890891
1.159425 0.35507944389213536 0.9212098492335735
1.2094 0.39106689958167334 0.9072965064538758
1.259375 0.42453363871825506 0.8928627449452013
1.30935 0.45566147883656805 0.8780808664533102
1.359325 0.4846236808926525 0.8630927249575395
1.4093 0.5115837536877746 0.8480144365964368
1.459275 0.5366948570272371 0.8329404548371552
1.50925 0.560099634594888 0.8179470671167566
1.559225 0.5819303475269219 0.8030953755905448
1.6092 0.6023092114783255 0.7884338251060954
1.659175 0.6213488648789363 0.7740003384955738
1.70915 0.6391529153236281 0.7598241143630327
1.759125 0.655816525753118 0.7459271367916397
1.8091 0.6714270132150622 0.7323254404682826
1.859075 0.6860644413401441 0.719030169012273
1.90905 0.6998021938633168 0.7060484590156233
1.959025 0.7127075210732033 0.6933841775546007
2.009 0.7248420543800503 0.6810385367442415
2.058975 0.7362622865625759 0.6690106052647663
2.10895 0.7470200169233333 0.6572977336533251
2.158925 0.7571627617316338 0.645895907476758
2.2089 0.7667341310997536 0.6348000402279153
2.258875 0.775774173925605 0.6240042158672239
2.30885 0.7843196928209039 0.6135018893136333
2.358825 0.7924045310860914 0.6032860518305505
2.4088 0.8000598338348833 0.5933493671135868
2.458775 0.8073142853440542 0.583684282933755
2.50875 0.8141943246311839 0.5742831223926779
2.558725 0.82072434116146 0.565138158180298
2.6087 0.8269268524663944 0.5562416726691753
2.658675 0.8328226653311019 0.5475860062147456
2.70865 0.8384310220785599 0.5391635956427707
2.758625 0.843769733353185 0.5309670045809726
2.8086 0.8488552986847194 0.522988947020911
2.858575 0.8537030159985816 0.5152223052696951
2.90855 0.8583270811313829 0.5076601432617442
2.958525 0.8627406783107119 0.5002957160423759
3.0085 0.8669560624666145 0.4931224761023867
3.058475 0.8709846341582781 0.4861340771317421
3.10845 0.8748370078229506 0.4793243756674516
3.158425 0.8785230739846727 0.4726874310327202
3.2084 0.8820520559974881 0.4662175038990685
3.258375 0.8854325618409683 0.4599090537482611
3.30835 0.8886726314345824 0.45375673546483775
3.358325 0.8917797798912651 0.4477553952514075
3.4083 0.8947610370889388 0.44190006602641707
3.458275 0.8976229839013589 0.43618596243686714
3.50825 0.9003717853960406 0.4306084755955784
3.558225 0.9030132212768265 0.4251631676333996
3.6082 0.9055527138215221 0.4198457661406417
3.658175 0.9079953535406678 0.4146521585584851
3.70815 0.910345922761611 0.40957838656977447
3.758125 0.9126089173223874 0.40462064052910723
3.8081 0.9147885665422404 0.3997752539641647
3.858075 0.9168888516197179 0.3950386981735833
3.90805 0.9189135225950019 0.3904075769411057
3.958025 0.9208661140002682 0.38587862138112344
4.008 0.9227499593103108 0.38144868492687156
4.057975 0.924568204295237 0.37711473846934174
4.10795 0.9263238193676644 0.37287386565234204
4.157925 0.9280196110083772 0.368723258326957
4.2079 0.9296582323467717 0.364660212166878
4.257875 0.9312421929655318 0.36068212244462605
4.30785 0.932773867992745 0.35678647996751245
4.357825 0.9342555065390531 0.35297086717123854
4.4078 0.9356892395323442 0.34923295436829693
4.457775 0.9370770869978804 0.3455704961477436
4.50775 0.9384209648276063 0.34198132792247155
4.557725 0.9397226910785846 0.33846336261978044
4.6077 0.9409839918370985 0.3350145875107968
4.657675 0.9422065066818394 0.3316330611741419
4.70765 0.9433917937767874 0.3283169105891487
4.757625 0.9445413346218178 0.3250643283538838
4.8076 0.9456565384867401 0.321873570023234
4.857575 0.9467387465523578 0.31874295156235255
4.90755 0.9477892357801966 0.3156708469108208
4.957525 0.9488092225307936 0.3126556856529724
5.0075 0.9497998659488405 0.3096959507899256
5.057475 0.9507622711319943 0.3067901766089895
5.10745 0.9516974920988497 0.3039369466462356
5.157425 0.9526065345703307 0.30113489173816027
5.2074 0.9534903585776562 0.29838268815850244
5.257375 0.9543498809089961 0.2956790558364225
5.30735 0.9551859774060177 0.29302275665239075
5.357325 0.9559994851206502 0.29041259280827736
5.4073 0.9567912043416171 0.28784740526827607
5.457275 0.9575619004995675 0.28532607226743456
5.50725 0.9583123059589674 0.28284750788470026
5.557225 0.9590431217043199 0.28041066067752574
5.6072 0.9597550189277066 0.2780145123752047
5.657175 0.960448640524148 0.2756580766282399
5.70715 0.9611246025007938 0.27334039781116365
5.757125 0.9617834953055312 0.2710605498763488
5.8071 0.9624258850801887 0.2688176352564653
5.857075 0.9630523148431531 0.26661078381334125
5.90705 0.9636633056058723 0.2644391518310974
5.957025 0.9642593574274017 0.26230192105152056
6.007 0.9648409504108647 0.26019829774973885
6.056975 0.9654085456454328 0.25812751184835525
6.10695 0.9659625860971727 0.2560888160682803
6.156925 0.9665034974518939 0.2540814851145928
6.2069 0.9670316889129049 0.25210481489583375
6.256875 0.967547553956398 0.25015812177521773
6.30685 0.9680514710469985 0.2482407418523179
6.356825 0.968543804315847 0.24635203027384878
6.4068 0.9690249042034234 0.24449136057223975
6.456775 0.9694951080691844 0.24265812403075204
6.50675 0.9699547407699414 0.2408517290739544
6.556725 0.9704041152087896 0.23907160068242705
6.6067 0.9708435328562787 0.23731717983061937
6.656675 0.9712732842454103 0.2355879229468384
6.70665 0.9716936494419417 0.23388330139439173
6.756625 0.97210489849139 0.2322028009729579
6.8066 0.9725072918440374 0.23054592143929883
6.856575 0.9729010807591597 0.22891217604647385
6.90655 0.9732865076896258 0.227301091100751
6.956525 0.9736638066479429 0.22571220553545254
7.0065 0.9740332035547601 0.22414507050100568
7.056475 0.9743949165707785 0.22259924897050498
7.10645 0.9747491564129596 0.22107431536012395
7.156425 0.975096126655874 0.21956985516374547
7.2064 0.9754360240189757 0.21808546460121048
7.256375 0.9757690386405468 0.21662075027960964
7.30635 0.9760953543390124 0.21517532886707325
7.356325 0.9764151488622816 0.21374882677853632
7.4063 0.9767285941257358 0.2123408798729811
7.456275 0.9770358564394493 0.21095113316168362
7.50625 0.9773370967251924 0.20957924052700852
7.556225 0.977632470723735 0.2082248644513226
7.6062 0.9779221291929446 0.2068876757556111
7.656175 0.978206218097138 0.20556735334740475
7.70615 0.9784848787881224 0.20426358397763944
7.756125 0.978758248178344 0.2029760620060893
7.8061 0.9790264589065267 0.2017044891750298
7.856075 0.9792896394961733 0.20044857439080171
7.90605 0.9795479145072773 0.19920803351296265
7.956025 0.979801404681572 0.19798258915072614
8.006 0.9800502270816306 0.1967719704664008
8.055975 0.9802944952241108 0.195575912985556
8.10595 0.9805343192074241 0.19439415841365137
8.155925 0.9807698058340919 0.1932264544588793
8.2059 0.9810010587280401 0.19207255466097975
8.255875 0.9812281784470702 0.1909322182257987
8.30585 0.9814512625907273 0.18980520986536922
8.355825 0.981670405903786 0.18869129964330547
8.4058 0.9818857003755463 0.18759026282530727
8.455775 0.9820972353351392 0.18650187973458296
8.50575 0.9823050975430198 0.18542593561200493
8.555725 0.9825093712788227 0.18436222048082132
8.6057 0.9827101384257408 0.1833105290157537
8.655675 0.9829074785515868 0.18227066041631826
8.70565 0.9831014689866817 0.18124241828421436
8.755625 0.9832921848987147 0.18022561050463157
8.8056 0.9834796993647041 0.17922004913133105
8.855575 0.9836640834401892 0.1782255502753641
8.90555 0.9838454062257727 0.17724193399729643
8.955525 0.9840237349311294 0.1762690242028113
9.0055 0.984199134936589 0.17530664854156977
9.055475 0.9843716698523994 0.1743546383092122
9.10545 0.9845414015757675 0.1734128283523888
9.155425 0.9847083903457732 0.172481056976712
9.2054 0.9848726947962463 0.17155916585752753
9.255375 0.9850343720066908 0.17064699995340482
9.30535 0.9851934775513412 0.16974440742225247
9.355325 0.9853500655464247 0.1688512395399661
9.4053 0.9855041886957068 0.1679673506215224
9.455275 0.9856558983343892 0.16709259794443324
9.50525 0.9858052444714298 0.16622684167448024
9.555225 0.9859522758303451 0.165369944793651
9.6052 0.9860970398885607 0.1645217730302017
9.655175 0.9862395829153671 0.16368219479077525
9.70515 0.9863799500085365 0.16285108109450372
9.755125 0.9865181851296537 0.1620283055090303
9.8051 0.9866543311382143 0.16121374408838535
9.855075 0.9867884298245373 0.1604072753126545
9.90505 0.986920521941538 0.15960878002938053
9.955025 0.9870506472354101 0.1588181413966409
10.005 0.9871788444752547 0.15803524482774575
10.054975 0.9873051514816985 0.15725997793750374
10.10495 0.9874296051545433 0.15649223049000435
10.154925 0.9875522414994802 0.15573189434786736
10.2049 0.9876730956539064 0.15497886342291195
10.254875 0.9877922019118779 0.15423303362820046
10.30485 0.9879095937482328 0.15349430283141122
10.354825 0.988025303841913 0.15276257080949987
10.4048 0.9881393640985179 0.15203773920460648
10.454775 0.9882518056721178 0.15131971148117024
10.50475 0.988362658986353 0.15060839288421304
10.554725 0.988471953754848 0.14990369039875534
10.6047 0.9885797190009629 0.14920551271032917
10.654675 0.9886859830769098 0.14851377016655357
10.70465 0.9887907736822539 0.14782837473974
10.754625 0.9888941178818241 0.14714923999049573
10.8046 0.9889960421230551 0.1464762810322946
10.854575 0.9890965722527777 0.14580941449698517
10.90455 0.9891957335334823 0.1451485585012081
10.954525 0.9892935506590704 0.14449363261369494
11.0045 0.9893900477701145 0.1438445578234215
11.054475 0.9894852484686433 0.1432012565085905
11.10445 0.989579175832468 0.14256365240641786
11.154425 0.9896718524290674 0.14193167058369943
11.2044 0.9897633003290477 0.14130523740813425
11.254375 0.9898535411191877 0.14068428052038232
11.30435 0.9899425959150902 0.14006872880683494
11.354325 0.9900304853734475 0.1394585123730768
11.4043 0.9901172297039382 0.1388535625180193
11.454275 0.9902028486807641 0.1382538117086858
11.50425 0.9902873616538449 0.13765919355562992
11.554225 0.9903707875596769 0.13706964278896772
11.6042 0.9904531449318694 0.1364850952350073
11.654175 0.9905344519113721 0.13590548779345768
11.70415 0.9906147262563972 0.13533075841520076
11.754125 0.9906939853520553 0.13476084608061023
11.8041 0.9907722462197056 0.13419569077840177
11.854075 0.9908495255260386 0.13363523348499995
11.90405 0.9909258395918915 0.1330794161444064
11.954025 0.9910012044008126 0.13252818164855631
12.004 0.9910756356073784 0.13198147381814845
12.053975 0.9911491485452723 0.13143923738393634
12.10395 0.9912217582351348 0.1309014179684673
12.153925 0.9912934793921884 0.13036796206825726
12.2039 0.9913643264336497 0.12983881703638908
12.253875 0.9914343134859313 0.12931393106552302
12.30385 0.9915034543916409 0.12879325317130777
12.353825 0.9915717627163882 0.12827673317618135
12.4038 0.9916392517553984 0.12776432169355115
12.453775 0.9917059345399445 0.1272559701123431
12.50375 0.991771823843603 0.12675163058190975
12.553725 0.9918369321883348 0.12625125599728743
12.6037 0.9919012718504031 0.12575479998479397
12.653675 0.991964854866126 0.12526221688795686
12.70365 0.9920276930374755 0.12477346175376382
12.753625 0.9920897979375239 0.12428849031922687
12.8036 0.9921511809157444 0.12380725899825187
12.853575 0.992211853103166 0.12332972486880521
12.90355 0.992271825417395 0.1228558456603702
12.953525 0.9923311085674991 0.12238557974168524
13.0035 0.9923897130587628 0.12191888610875695
13.053475 0.992447649197318 0.12145572437314031
13.10345 0.9925049270946508 0.12099605475048014
13.153425 0.9925615566719906 0.12053983804930574
13.2034 0.9926175476645847 0.1200870356600734
13.253375 0.9926729096258609 0.11963760954444996
13.30335 0.9927276519314819 0.1191915222248311
13.353325 0.9927817837832955 0.1187487367740889
13.4033 0.9928353142131819 0.11830921680554224
13.453275 0.9928882520868029 0.11787292646314512
13.50325 0.9929406061072542 0.11743983041188684
13.553225 0.9929923848186256 0.11700989382839919
13.6032 0.9930435966094707 0.1165830823917651
13.653175 0.9930942497161867 0.11615936227452402
13.70315 0.993144352226312 0.11573870013386911
13.753125 0.9931939120817382 0.11532106310303115
13.8031 0.993242937081843 0.11490641878284548
13.853075 0.9932914348865443 0.11449473523349621
13.90305 0.9933394130192792 0.11408598096643467
13.953025 0.9933868788699075 0.11368012493646668
14.003 0.9934338396975448 0.1132771365340055
14.052975 0.9934803026333253 0.11287698557748582
14.10295 0.9935262746830975 0.1124796423059354
14.152925 0.9935717627300524 0.11208507737169998
14.2029 0.9936167735372894 0.1116932618333182
14.252875 0.9936613137503185 0.11130416714854312
14.30285 0.9937053898995035 0.11091776516750643
14.352825 0.9937490084024443 0.11053402812602195
14.4028 0.9937921755663036 0.11015292863902569
14.452775 0.9938348975900767 0.10977443969414852
14.50275 0.9938771805668081 0.10939853464541897
14.552725 0.9939190304857548 0.10902518720709274
14.6027 0.9939604532344986 0.10865437144760598
14.652675 0.9940014546010066 0.10828606178364959
14.70265 0.9940420402756479 0.1079202329743618
14.752625 0.994082215853157 0.10755686011563613
14.8026 0.994121986834555 0.10719591863454193
14.852575 0.9941613586290257 0.10683738428385538
14.90255 0.994200336555747 0.10648123313669808
14.952525 0.9942389258456802 0.10612744158128079
15.0025 0.9942771316433182 0.10577598631575003
15.052475 0.9943149590083937 0.10542684434313512
15.10245 0.9943524129175476 0.10507999296639359
15.152425 0.9943894982659595 0.10473540978355231
15.2024 0.994426219868941 0.1043930726829428
15.252375 0.9944625824634927 0.10405295983852803
15.30235 0.9944985907098269 0.10371504970531908
15.352325 0.9945342491928544 0.10337932101487939
15.4023 0.9945695624236385 0.1030457527709148
15.452275 0.9946045348408161 0.10271432424494749
15.50225 0.9946391708119888 0.10238501497207195
15.552225 0.9946734746350795 0.10205780474679108
15.6022 0.9947074505396626 0.10173267361893072
15.652175 0.994741102688262 0.1014096018896311
15.70215 0.9947744351776221 0.10108857010741316
15.752125 0.9948074520399494 0.10076955906431835
15.8021 0.994840157244128 0.10045254979212043
15.852075 0.9948725546969086 0.10013752355860729
15.90205 0.9949046482440705 0.09982446186393187
15.952025 0.9949364416715586 0.09951334643703007
16.002 0.9949679387065973 0.09920415923210492
16.051975 0.9949991430187777 0.09889688242517458
16.10195 0.9950300582211238 0.09859149841068438
16.151925 0.9950606878711346 0.09828798979817958
16.2019 0.9950910354718036 0.09798633940903935
16.251875 0.9951211044726173 0.09768653027326957
16.30185 0.9951508982705325 0.09738854562635359
16.351825 0.9951804202109321 0.0970923689061599
16.4018 0.9952096735885607 0.09679798374990499
16.451775 0.9952386616484424 0.09650537399117104
16.50175 0.9952673875867758 0.09621452365697634
16.551725 0.9952958545518135 0.09592541696489836
16.6017 0.9953240656447216 0.09563803832024749
16.651675 0.9953520239204215 0.09535237231329104
16.70165 0.9953797323884144 0.0950684037165261
16.751625 0.9954071940135883 0.09478611748200047
16.8016 0.9954344117170095 0.09450549873868057
16.851575 0.995461388376696 0.09422653278986534
16.90155 0.9954881268283761 0.09394920511064536
16.951525 0.9955146298662323 0.09367350134540611
17.0015 0.9955409002436273 0.09339940730537445
17.051475 0.9955669406738193 0.09312690896620784
17.10145 0.9955927538306577 0.0928559924656247
17.151425 0.9956183423492696 0.09258664410107599
17.2014 0.9956437088267296 0.09231885032745638
17.251375 0.9956688558227162 0.09205259775485462
17.30135 0.995693785860157 0.09178787314634265
17.351325 0.9957185014258579 0.09152466341580161
17.4013 0.9957430049711227 0.09126295562578543
17.451275 0.9957672989123594 0.09100273698542018
17.50125 0.9957913856316724 0.09074399484833884
17.551225 0.9958152674774469 0.09048671671065106
17.6012 0.9958389467649187 0.09023089020894663
17.651175 0.9958624257767333 0.08997650311833275
17.70115 0.9958857067634952 0.08972354335050349
17.751125 0.9959087919443055 0.08947199895184219
17.8011 0.9959316835072888 0.08922185810155435
17.851075 0.9959543836101115 0.08897310910983239
17.90105 0.995976894380487 0.08872574041604986
17.951025 0.9959992179166746 0.08847974058698599
18.001 0.9960213562879661 0.08823509831507903
18.050975 0.996043311535164 0.08799180241670831
18.10095 0.9960650856710521 0.08774984183050435
18.150925 0.9960866806808532 0.08750920561568643
18.2009 0.9961080985226819 0.08726988295042717
18.250875 0.9961293411279872 0.08703186313024369
18.30085 0.9961504104019867 0.08679513556641459
18.350825 0.996171308224092 0.0865596897844226
18.4008 0.9961920364483275 0.08632551542242212
18.450775 0.9962125969037409 0.08609260222973138
18.50075 0.996232991394804 0.08586094006534879
18.550725 0.9962532217018097 0.08563051889649265
18.6007 0.996273289581258 0.0854013287971645
18.650675 0.9962931967662368 0.08517335994673483
18.70065 0.9963129449667951 0.08494660262855154
18.750625 0.9963325358703096 0.08472104722857003
18.8006 0.9963519711418436 0.08449668423400498
18.850575 0.996371252424501 0.08427350423200348
18.90055 0.9963903813397711 0.0840514979083385
18.950525 0.9964093594878706 0.0838306560461232
19.0005 0.9964281884480756 0.08361096952454503
19.050475 0.9964468697790508 0.08339242931761942
19.10045 0.9964654050191702 0.08317502649296307
19.150425 0.9964837956868341 0.08295875221058593
19.2004 0.9965020432807784 0.08274359772170198
19.250375 0.9965201492803792 0.08252955436755807
19.30035 0.9965381151459533 0.08231661357828106
19.350325 0.99655594231905 0.08210476687174234
19.4003 0.9965736322227409 0.08189400585243967
19.450275 0.9965911862619029 0.08168432221039625
19.50025 0.9966086058234966 0.08147570772007637
19.550225 0.9966258922768396 0.0812681542393174
19.6002 0.9966430469738744 0.08106165370827818
19.650175 0.996660071249433 0.08085619814840292
19.70015 0.9966769664214954 0.08065177966140098
19.750125 0.9966937337914442 0.08044839042824183
19.8001 0.9967103746443154 0.08024602270816497
19.850075 0.9967268902490423 0.08004466883770478
19.90005 0.9967432818586991 0.07984432122972974
19.950025 0.996759550710736 0.07964497237249607
20.0 0.9967756980272136 0.07944661482871523
