! Created with skrf 2.1.0 (http://scikit-rf.org).
# GHz S RI R 50.0 
!freq ReS11 ImS11 ReS12 ImS12 ReS13 ImS13
! ReS14 ImS14
! ReS21 ImS21 ReS22 ImS22 ReS23 ImS23
! ReS24 ImS24
! ReS31 ImS31 ReS32 ImS32 ReS33 ImS33
! ReS34 ImS34
! ReS41 ImS41 ReS42 ImS42 ReS43 ImS43
! ReS44 ImS44
!
0.01 0.0 0.0 0.998814284655643 -0.00837363595565992 0.0 0.0 0.0 0.0
 0.998814284655643 -0.00837363595565992 0.0 0.0 0.0 0.0 0.0 0.0
 0.0 0.0 0.0 0.0 0.0 0.0 0.998814284655643 -0.00837363595565992
 0.0 0.0 0.0 0.0 0.998814284655643 -0.00837363595565992 0.0 0.0
0.059975 0.0 0.0 0.9959243342365921 -0.05011663927646944 0.0 0.0 0.0 0.0
 0.9959243342365921 -0.05011663927646944 0.0 0.0 0.0 0.0 0.0 0.0
 0.0 0.0 0.0 0.0 0.0 0.0 0.9959243342365921 -0.05011663927646944
 0.0 0.0 0.0 0.0 0.9959243342365921 -0.05011663927646944 0.0 0.0
0.10995 0.0 0.0 0.9919608305010291 -0.09169408488950966 0.0 0.0 0.0 0.0
 0.9919608305010291 -0.09169408488950966 0.0 0.0 0.0 0.0 0.0 0.0
 0.0 0.0 0.0 0.0 0.0 0.0 0.9919608305010291 -0.09169408488950966
 0.0 0.0 0.0 0.0 0.9919608305010291 -0.09169408488950966 0.0 0.0
0.159925 0.0 0.0 0.986473682564241 -0.1330559038933355 0.0 0.0 0.0 0.0
 0.986473682564241 -0.1330559038933355 0.0 0.0 0.0 0.0 0.0 0.0
 0.0 0.0 0.0 0.0 0.0 0.0 0.986473682564241 -0.1330559038933355
 0.0 0.0 0.0 0.0 0.986473682564241 -0.1330559038933355 0.0 0.0
0.2099 0.0 0.0 0.9793782511950058 -0.17413949617593705 0.0 0.0 0.0 0.0
 0.9793782511950058 -0.17413949617593705 0.0 0.0 0.0 0.0 0.0 0.0
 0.0 0.0 0.0 0.0 0.0 0.0 0.9793782511950058 -0.17413949617593705
 0.0 0.0 0.0 0.0 0.9793782511950058 -0.17413949617593705 0.0 0.0
0.259875 0.0 0.0 0.9706480965871032 -0.21487889408867272 0.0 0.0 0.0 0.0
 0.9706480965871032 -0.21487889408867272 0.0 0.0 0.0 0.0 0.0 0.0
 0.0 0.0 0.0 0.0 0.0 0.0 0.9706480965871032 -0.21487889408867272
 0.0 0.0 0.0 0.0 0.9706480965871032 -0.21487889408867272 0.0 0.0
0.30985 0.0 0.0 0.9602782010541238 -0.2552069317814774 0.0 0.0 0.0 0.0
 0.9602782010541238 -0.2552069317814774 0.0 0.0 0.0 0.0 0.0 0.0
 0.0 0.0 0.0 0.0 0.0 0.0 0.9602782010541238 -0.2552069317814774
 0.0 0.0 0.0 0.0 0.9602782010541238 -0.2552069317814774 0.0 0.0
0.359825 0.0 0.0 0.9482746639697953 -0.2950561517109217 0.0 0.0 0.0 0.0
 0.9482746639697953 -0.2950561517109217 0.0 0.0 0.0 0.0 0.0 0.0
 0.0 0.0 0.0 0.0 0.0 0.0 0.9482746639697953 -0.2950561517109217
 0.0 0.0 0.0 0.0 0.9482746639697953 -0.2950561517109217 0.0 0.0
0.4098 0.0 0.0 0.9346507390320178 -0.3343593018138543 0.0 0.0 0.0 0.0
 0.9346507390320178 -0.3343593018138543 0.0 0.0 0.0 0.0 0.0 0.0
 0.0 0.0 0.0 0.0 0.0 0.0 0.9346507390320178 -0.3343593018138543
 0.0 0.0 0.0 0.0 0.9346507390320178 -0.3343593018138543 0.0 0.0
0.459775 0.0 0.0 0.9194249972249358 -0.37304966134746087 0.0 0.0 0.0 0.0
 0.9194249972249358 -0.37304966134746087 0.0 0.0 0.0 0.0 0.0 0.0
 0.0 0.0 0.0 0.0 0.0 0.0 0.9194249972249358 -0.37304966134746087
 0.0 0.0 0.0 0.0 0.9194249972249358 -0.37304966134746087 0.0 0.0
0.50975 0.0 0.0 0.9026203555113153 -0.41106128268359854 0.0 0.0 0.0 0.0
 0.9026203555113153 -0.41106128268359854 0.0 0.0 0.0 0.0 0.0 0.0
 0.0 0.0 0.0 0.0 0.0 0.0 0.9026203555113153 -0.41106128268359854
 0.0 0.0 0.0 0.0 0.9026203555113153 -0.41106128268359854 0.0 0.0
0.559725 0.0 0.0 0.8842635068201194 -0.44832918687857254 0.0 0.0 0.0 0.0
 0.8842635068201194 -0.44832918687857254 0.0 0.0 0.0 0.0 0.0 0.0
 0.0 0.0 0.0 0.0 0.0 0.0 0.8842635068201194 -0.44832918687857254
 0.0 0.0 0.0 0.0 0.8842635068201194 -0.44832918687857254 0.0 0.0
0.6097 0.0 0.0 0.8643845538776824 -0.4847895313819656 0.0 0.0 0.0 0.0
 0.8643845538776824 -0.4847895313819656 0.0 0.0 0.0 0.0 0.0 0.0
 0.0 0.0 0.0 0.0 0.0 0.0 0.8643845538776824 -0.4847895313819656
 0.0 0.0 0.0 0.0 0.8643845538776824 -0.4847895313819656 0.0 0.0
0.659675 0.0 0.0 0.8430167536920123 -0.5203797595657492 0.0 0.0 0.0 0.0
 0.8430167536920123 -0.5203797595657492 0.0 0.0 0.0 0.0 0.0 0.0
 0.0 0.0 0.0 0.0 0.0 0.0 0.8430167536920123 -0.5203797595657492
 0.0 0.0 0.0 0.0 0.8430167536920123 -0.5203797595657492 0.0 0.0
0.70965 0.0 0.0 0.8201963250384299 -0.5550387374992186 0.0 0.0 0.0 0.0
 0.8201963250384299 -0.5550387374992186 0.0 0.0 0.0 0.0 0.0 0.0
 0.0 0.0 0.0 0.0 0.0 0.0 0.8201963250384299 -0.5550387374992186
 0.0 0.0 0.0 0.0 0.8201963250384299 -0.5550387374992186 0.0 0.0
0.759625 0.0 0.0 0.7959622929875471 -0.5887068811515824 0.0 0.0 0.0 0.0
 0.7959622929875471 -0.5887068811515824 0.0 0.0 0.0 0.0 0.0 0.0
 0.0 0.0 0.0 0.0 0.0 0.0 0.7959622929875471 -0.5887068811515824
 0.0 0.0 0.0 0.0 0.7959622929875471 -0.5887068811515824 0.0 0.0
0.8096 0.0 0.0 0.7703563555944255 -0.6213262759501739 0.0 0.0 0.0 0.0
 0.7703563555944255 -0.6213262759501739 0.0 0.0 0.0 0.0 0.0 0.0
 0.0 0.0 0.0 0.0 0.0 0.0 0.7703563555944255 -0.6213262759501739
 0.0 0.0 0.0 0.0 0.7703563555944255 -0.6213262759501739 0.0 0.0
0.859575 0.0 0.0 0.7434227638579953 -0.6528407898875906 0.0 0.0 0.0 0.0
 0.7434227638579953 -0.6528407898875906 0.0 0.0 0.0 0.0 0.0 0.0
 0.0 0.0 0.0 0.0 0.0 0.0 0.7434227638579953 -0.6528407898875906
 0.0 0.0 0.0 0.0 0.7434227638579953 -0.6528407898875906 0.0 0.0
0.90955 0.0 0.0 0.7152082094584445 -0.6831961809235724 0.0 0.0 0.0 0.0
 0.7152082094584445 -0.6831961809235724 0.0 0.0 0.0 0.0 0.0 0.0
 0.0 0.0 0.0 0.0 0.0 0.0 0.7152082094584445 -0.6831961809235724
 0.0 0.0 0.0 0.0 0.7152082094584445 -0.6831961809235724 0.0 0.0
0.959525 0.0 0.0 0.6857617167893914 -0.712340199146054 0.0 0.0 0.0 0.0
 0.6857617167893914 -0.712340199146054 0.0 0.0 0.0 0.0 0.0 0.0
 0.0 0.0 0.0 0.0 0.0 0.0 0.6857617167893914 -0.712340199146054
 0.0 0.0 0.0 0.0 0.6857617167893914 -0.712340199146054 0.0 0.0
1.0095 0.0 0.0 0.6551345370324605 -0.7402226839743102 0.0 0.0 0.0 0.0
 0.6551345370324605 -0.7402226839743102 0.0 0.0 0.0 0.0 0.0 0.0
 0.0 0.0 0.0 0.0 0.0 0.0 0.6551345370324605 -0.7402226839743102
 0.0 0.0 0.0 0.0 0.6551345370324605 -0.7402226839743102 0.0 0.0
1.059475 0.0 0.0 0.6233800427999275 -0.7667956565676609 0.0 0.0 0.0 0.0
 0.6233800427999275 -0.7667956565676609 0.0 0.0 0.0 0.0 0.0 0.0
 0.0 0.0 0.0 0.0 0.0 0.0 0.6233800427999275 -0.7667956565676609
 0.0 0.0 0.0 0.0 0.6233800427999275 -0.7667956565676609 0.0 0.0
1.10945 0.0 0.0 0.590553622376882 -0.792013407523497 0.0 0.0 0.0 0.0
 0.590553622376882 -0.792013407523497 0.0 0.0 0.0 0.0 0.0 0.0
 0.0 0.0 0.0 0.0 0.0 0.0 0.590553622376882 -0.792013407523497
 0.0 0.0 0.0 0.0 0.590553622376882 -0.792013407523497 0.0 0.0
1.159425 0.0 0.0 0.5567125729315691 -0.8158325798947956 0.0 0.0 0.0 0.0
 0.5567125729315691 -0.8158325798947956 0.0 0.0 0.0 0.0 0.0 0.0
 0.0 0.0 0.0 0.0 0.0 0.0 0.5567125729315691 -0.8158325798947956
 0.0 0.0 0.0 0.0 0.5567125729315691 -0.8158325798947956 0.0 0.0
1.2094 0.0 0.0 0.5219159922926301 -0.8382122475212811 0.0 0.0 0.0 0.0
 0.5219159922926301 -0.8382122475212811 0.0 0.0 0.0 0.0 0.0 0.0
 0.0 0.0 0.0 0.0 0.0 0.0 0.5219159922926301 -0.8382122475212811
 0.0 0.0 0.0 0.0 0.5219159922926301 -0.8382122475212811 0.0 0.0
1.259375 0.0 0.0 0.48622466905226475 -0.8591139886444672 0.0 0.0 0.0 0.0
 0.48622466905226475 -0.8591139886444672 0.0 0.0 0.0 0.0 0.0 0.0
 0.0 0.0 0.0 0.0 0.0 0.0 0.48622466905226475 -0.8591139886444672
 0.0 0.0 0.0 0.0 0.48622466905226475 -0.8591139886444672 0.0 0.0
1.30935 0.0 0.0 0.44970097086827876 -0.8785019547613712 0.0 0.0 0.0 0.0
 0.44970097086827876 -0.8785019547613712 0.0 0.0 0.0 0.0 0.0 0.0
 0.0 0.0 0.0 0.0 0.0 0.0 0.44970097086827876 -0.8785019547613712
 0.0 0.0 0.0 0.0 0.44970097086827876 -0.8785019547613712 0.0 0.0
1.359325 0.0 0.0 0.4124087309204402 -0.8963429346623056 0.0 0.0 0.0 0.0
 0.4124087309204402 -0.8963429346623056 0.0 0.0 0.0 0.0 0.0 0.0
 0.0 0.0 0.0 0.0 0.0 0.0 0.4124087309204402 -0.8963429346623056
 0.0 0.0 0.0 0.0 0.4124087309204402 -0.8963429346623056 0.0 0.0
1.4093 0.0 0.0 0.3744131325372878 -0.9126064135931706 0.0 0.0 0.0 0.0
 0.3744131325372878 -0.9126064135931706 0.0 0.0 0.0 0.0 0.0 0.0
 0.0 0.0 0.0 0.0 0.0 0.0 0.3744131325372878 -0.9126064135931706
 0.0 0.0 0.0 0.0 0.3744131325372878 -0.9126064135931706 0.0 0.0
1.459275 0.0 0.0 0.3357805920549479 -0.9272646274809292 0.0 0.0 0.0 0.0
 0.3357805920549479 -0.9272646274809292 0.0 0.0 0.0 0.0 0.0 0.0
 0.0 0.0 0.0 0.0 0.0 0.0 0.3357805920549479 -0.9272646274809292
 0.0 0.0 0.0 0.0 0.3357805920549479 -0.9272646274809292 0.0 0.0
1.50925 0.0 0.0 0.29657864000399325 -0.9402926121616446 0.0 0.0 0.0 0.0
 0.29657864000399325 -0.9402926121616446 0.0 0.0 0.0 0.0 0.0 0.0
 0.0 0.0 0.0 0.0 0.0 0.0 0.29657864000399325 -0.9402926121616446
 0.0 0.0 0.0 0.0 0.29657864000399325 -0.9402926121616446 0.0 0.0
1.559225 0.0 0.0 0.256875800746873 -0.9516682475530006 0.0 0.0 0.0 0.0
 0.256875800746873 -0.9516682475530006 0.0 0.0 0.0 0.0 0.0 0.0
 0.0 0.0 0.0 0.0 0.0 0.0 0.256875800746873 -0.9516682475530006
 0.0 0.0 0.0 0.0 0.256875800746873 -0.9516682475530006 0.0 0.0
1.6092 0.0 0.0 0.2167414707090595 -0.9613722967171738 0.0 0.0 0.0 0.0
 0.2167414707090595 -0.9613722967171738 0.0 0.0 0.0 0.0 0.0 0.0
 0.0 0.0 0.0 0.0 0.0 0.0 0.2167414707090595 -0.9613722967171738
 0.0 0.0 0.0 0.0 0.2167414707090595 -0.9613722967171738 0.0 0.0
1.659175 0.0 0.0 0.17624579536323817 -0.9693884397649921 0.0 0.0 0.0 0.0
 0.17624579536323817 -0.9693884397649921 0.0 0.0 0.0 0.0 0.0 0.0
 0.0 0.0 0.0 0.0 0.0 0.0 0.17624579536323817 -0.9693884397649921
 0.0 0.0 0.0 0.0 0.17624579536323817 -0.9693884397649921 0.0 0.0
1.70915 0.0 0.0 0.13545954513865469 -0.9757033025582161 0.0 0.0 0.0 0.0
 0.13545954513865469 -0.9757033025582161 0.0 0.0 0.0 0.0 0.0 0.0
 0.0 0.0 0.0 0.0 0.0 0.0 0.13545954513865469 -0.9757033025582161
 0.0 0.0 0.0 0.0 0.13545954513865469 -0.9757033025582161 0.0 0.0
1.759125 0.0 0.0 0.09445399043787835 -0.9803064801733822 0.0 0.0 0.0 0.0
 0.09445399043787835 -0.9803064801733822 0.0 0.0 0.0 0.0 0.0 0.0
 0.0 0.0 0.0 0.0 0.0 0.0 0.09445399043787835 -0.9803064801733822
 0.0 0.0 0.0 0.0 0.09445399043787835 -0.9803064801733822 0.0 0.0
1.8091 0.0 0.0 0.05330077595130862 -0.9831905550977637 0.0 0.0 0.0 0.0
 0.05330077595130862 -0.9831905550977637 0.0 0.0 0.0 0.0 0.0 0.0
 0.0 0.0 0.0 0.0 0.0 0.0 0.05330077595130862 -0.9831905550977637
 0.0 0.0 0.0 0.0 0.05330077595130862 -0.9831905550977637 0.0 0.0
1.859075 0.0 0.0 0.012071794466098584 -0.9843511101355631 0.0 0.0 0.0 0.0
 0.012071794466098584 -0.9843511101355631 0.0 0.0 0.0 0.0 0.0 0.0
 0.0 0.0 0.0 0.0 0.0 0.0 0.012071794466098584 -0.9843511101355631
 0.0 0.0 0.0 0.0 0.012071794466098584 -0.9843511101355631 0.0 0.0
1.90905 0.0 0.0 -0.029160939628843575 -0.9837867360103295 0.0 0.0 0.0 0.0
 -0.029160939628843575 -0.9837867360103295 0.0 0.0 0.0 0.0 0.0 0.0
 0.0 0.0 0.0 0.0 0.0 0.0 -0.029160939628843575 -0.9837867360103295
 0.0 0.0 0.0 0.0 -0.029160939628843575 -0.9837867360103295 0.0 0.0
1.959025 0.0 0.0 -0.07032541693630918 -0.9814990336577406 0.0 0.0 0.0 0.0
 -0.07032541693630918 -0.9814990336577406 0.0 0.0 0.0 0.0 0.0 0.0
 0.0 0.0 0.0 0.0 0.0 0.0 -0.07032541693630918 -0.9814990336577406
 0.0 0.0 0.0 0.0 -0.07032541693630918 -0.9814990336577406 0.0 0.0
2.009 0.0 0.0 -0.11134975953443078 -0.9774926112112382 0.0 0.0 0.0 0.0
 -0.11134975953443078 -0.9774926112112382 0.0 0.0 0.0 0.0 0.0 0.0
 0.0 0.0 0.0 0.0 0.0 0.0 -0.11134975953443078 -0.9774926112112382
 0.0 0.0 0.0 0.0 -0.11134975953443078 -0.9774926112112382 0.0 0.0
2.058975 0.0 0.0 -0.15216234714029167 -0.9717750756914986 0.0 0.0 0.0 0.0
 -0.15216234714029167 -0.9717750756914986 0.0 0.0 0.0 0.0 0.0 0.0
 0.0 0.0 0.0 0.0 0.0 0.0 -0.15216234714029167 -0.9717750756914986
 0.0 0.0 0.0 0.0 -0.15216234714029167 -0.9717750756914986 0.0 0.0
2.10895 0.0 0.0 -0.19269194274210633 -0.9643570194193241 0.0 0.0 0.0 0.0
 -0.19269194274210633 -0.9643570194193241 0.0 0.0 0.0 0.0 0.0 0.0
 0.0 0.0 0.0 0.0 0.0 0.0 -0.19269194274210633 -0.9643570194193241
 0.0 0.0 0.0 0.0 -0.19269194274210633 -0.9643570194193241 0.0 0.0
2.158925 0.0 0.0 -0.23286781748808233 -0.955252001180213 0.0 0.0 0.0 0.0
 -0.23286781748808233 -0.955252001180213 0.0 0.0 0.0 0.0 0.0 0.0
 0.0 0.0 0.0 0.0 0.0 0.0 -0.23286781748808233 -0.955252001180213
 0.0 0.0 0.0 0.0 -0.23286781748808233 -0.955252001180213 0.0 0.0
2.2089 0.0 0.0 -0.2726198746202202 -0.9444765221775699 0.0 0.0 0.0 0.0
 -0.2726198746202202 -0.9444765221775699 0.0 0.0 0.0 0.0 0.0 0.0
 0.0 0.0 0.0 0.0 0.0 0.0 -0.2726198746202202 -0.9444765221775699
 0.0 0.0 0.0 0.0 -0.2726198746202202 -0.9444765221775699 0.0 0.0
2.258875 0.0 0.0 -0.3118787722420006 -0.9320499968202307 0.0 0.0 0.0 0.0
 -0.3118787722420006 -0.9320499968202307 0.0 0.0 0.0 0.0 0.0 0.0
 0.0 0.0 0.0 0.0 0.0 0.0 -0.3118787722420006 -0.9320499968202307
 0.0 0.0 0.0 0.0 -0.3118787722420006 -0.9320499968202307 0.0 0.0
2.30885 0.0 0.0 -0.3505760447101654 -0.9179947183986646 0.0 0.0 0.0 0.0
 -0.3505760447101654 -0.9179947183986646 0.0 0.0 0.0 0.0 0.0 0.0
 0.0 0.0 0.0 0.0 0.0 0.0 -0.3505760447101654 -0.9179947183986646
 0.0 0.0 0.0 0.0 -0.3505760447101654 -0.9179947183986646 0.0 0.0
2.358825 0.0 0.0 -0.38864422244255264 -0.9023358197128573 0.0 0.0 0.0 0.0
 -0.38864422244255264 -0.9023358197128573 0.0 0.0 0.0 0.0 0.0 0.0
 0.0 0.0 0.0 0.0 0.0 0.0 -0.38864422244255264 -0.9023358197128573
 0.0 0.0 0.0 0.0 -0.38864422244255264 -0.9023358197128573 0.0 0.0
2.4088 0.0 0.0 -0.42601694993615474 -0.8851012287234497 0.0 0.0 0.0 0.0
 -0.42601694993615474 -0.8851012287234497 0.0 0.0 0.0 0.0 0.0 0.0
 0.0 0.0 0.0 0.0 0.0 0.0 -0.42601694993615474 -0.8851012287234497
 0.0 0.0 0.0 0.0 -0.42601694993615474 -0.8851012287234497 0.0 0.0
2.458775 0.0 0.0 -0.46262910179225797 -0.8663216193061899 0.0 0.0 0.0 0.0
 -0.46262910179225797 -0.8663216193061899 0.0 0.0 0.0 0.0 0.0 0.0
 0.0 0.0 0.0 0.0 0.0 0.0 -0.46262910179225797 -0.8663216193061899
 0.0 0.0 0.0 0.0 -0.46262910179225797 -0.8663216193061899 0.0 0.0
2.50875 0.0 0.0 -0.49841689654862165 -0.8460303571981186 0.0 0.0 0.0 0.0
 -0.49841689654862165 -0.8460303571981186 0.0 0.0 0.0 0.0 0.0 0.0
 0.0 0.0 0.0 0.0 0.0 0.0 -0.49841689654862165 -0.8460303571981186
 0.0 0.0 0.0 0.0 -0.49841689654862165 -0.8460303571981186 0.0 0.0
2.558725 0.0 0.0 -0.5333180081221707 -0.8242634412321509 0.0 0.0 0.0 0.0
 -0.5333180081221707 -0.8242634412321509 0.0 0.0 0.0 0.0 0.0 0.0
 0.0 0.0 0.0 0.0 0.0 0.0 -0.5333180081221707 -0.8242634412321509
 0.0 0.0 0.0 0.0 -0.5333180081221707 -0.8242634412321509 0.0 0.0
2.6087 0.0 0.0 -0.5672716746695964 -0.8010594399647986 0.0 0.0 0.0 0.0
 -0.5672716746695964 -0.8010594399647986 0.0 0.0 0.0 0.0 0.0 0.0
 0.0 0.0 0.0 0.0 0.0 0.0 -0.5672716746695964 -0.8010594399647986
 0.0 0.0 0.0 0.0 -0.5672716746695964 -0.8010594399647986 0.0 0.0
2.658675 0.0 0.0 -0.6002188046775482 -0.7764594238097046 0.0 0.0 0.0 0.0
 -0.6002188046775482 -0.7764594238097046 0.0 0.0 0.0 0.0 0.0 0.0
 0.0 0.0 0.0 0.0 0.0 0.0 -0.6002188046775482 -0.7764594238097046
 0.0 0.0 0.0 0.0 -0.6002188046775482 -0.7764594238097046 0.0 0.0
2.70865 0.0 0.0 -0.6321020800987563 -0.7505068927973966 0.0 0.0 0.0 0.0
 -0.6321020800987563 -0.7505068927973966 0.0 0.0 0.0 0.0 0.0 0.0
 0.0 0.0 0.0 0.0 0.0 0.0 -0.6321020800987563 -0.7505068927973966
 0.0 0.0 0.0 0.0 -0.6321020800987563 -0.7505068927973966 0.0 0.0
2.758625 0.0 0.0 -0.662866056355445 -0.7232477000892071 0.0 0.0 0.0 0.0
 -0.662866056355445 -0.7232477000892071 0.0 0.0 0.0 0.0 0.0 0.0
 0.0 0.0 0.0 0.0 0.0 0.0 -0.662866056355445 -0.7232477000892071
 0.0 0.0 0.0 0.0 -0.662866056355445 -0.7232477000892071 0.0 0.0
2.8086 0.0 0.0 -0.6924572590367337 -0.6947299713806335 0.0 0.0 0.0 0.0
 -0.6924572590367337 -0.6947299713806335 0.0 0.0 0.0 0.0 0.0 0.0
 0.0 0.0 0.0 0.0 0.0 0.0 -0.6924572590367337 -0.6947299713806335
 0.0 0.0 0.0 0.0 -0.6924572590367337 -0.6947299713806335 0.0 0.0
2.858575 0.0 0.0 -0.7208242771224069 -0.6650040203365106 0.0 0.0 0.0 0.0
 -0.7208242771224069 -0.6650040203365106 0.0 0.0 0.0 0.0 0.0 0.0
 0.0 0.0 0.0 0.0 0.0 0.0 -0.7208242771224069 -0.6650040203365106
 0.0 0.0 0.0 0.0 -0.7208242771224069 -0.6650040203365106 0.0 0.0
2.90855 0.0 0.0 -0.7479178525714039 -0.6341222602072313 0.0 0.0 0.0 0.0
 -0.7479178525714039 -0.6341222602072313 0.0 0.0 0.0 0.0 0.0 0.0
 0.0 0.0 0.0 0.0 0.0 0.0 -0.7479178525714039 -0.6341222602072313
 0.0 0.0 0.0 0.0 -0.7479178525714039 -0.6341222602072313 0.0 0.0
2.958525 0.0 0.0 -0.773690966119682 -0.602139111781837 0.0 0.0 0.0 0.0
 -0.773690966119682 -0.602139111781837 0.0 0.0 0.0 0.0 0.0 0.0
 0.0 0.0 0.0 0.0 0.0 0.0 -0.773690966119682 -0.602139111781837
 0.0 0.0 0.0 0.0 -0.773690966119682 -0.602139111781837 0.0 0.0
3.0085 0.0 0.0 -0.7980989191386508 -0.5691109078401565 0.0 0.0 0.0 0.0
 -0.7980989191386508 -0.5691109078401565 0.0 0.0 0.0 0.0 0.0 0.0
 0.0 0.0 0.0 0.0 0.0 0.0 -0.7980989191386508 -0.5691109078401565
 0.0 0.0 0.0 0.0 -0.7980989191386508 -0.5691109078401565 0.0 0.0
3.058475 0.0 0.0 -0.8210994114122291 -0.5350957942722121 0.0 0.0 0.0 0.0
 -0.8210994114122291 -0.5350957942722121 0.0 0.0 0.0 0.0 0.0 0.0
 0.0 0.0 0.0 0.0 0.0 0.0 -0.8210994114122291 -0.5350957942722121
 0.0 0.0 0.0 0.0 -0.8210994114122291 -0.5350957942722121 0.0 0.0
3.10845 0.0 0.0 -0.8426526146976676 -0.5001536280388811 0.0 0.0 0.0 0.0
 -0.8426526146976676 -0.5001536280388811 0.0 0.0 0.0 0.0 0.0 0.0
 0.0 0.0 0.0 0.0 0.0 0.0 -0.8426526146976676 -0.5001536280388811
 0.0 0.0 0.0 0.0 -0.8426526146976676 -0.5001536280388811 0.0 0.0
3.158425 0.0 0.0 -0.8627212419426142 -0.46434587215327094 0.0 0.0 0.0 0.0
 -0.8627212419426142 -0.46434587215327094 0.0 0.0 0.0 0.0 0.0 0.0
 0.0 0.0 0.0 0.0 0.0 0.0 -0.8627212419426142 -0.46434587215327094
 0.0 0.0 0.0 0.0 -0.8627212419426142 -0.46434587215327094 0.0 0.0
3.2084 0.0 0.0 -0.8812706120384745 -0.4277354878674174 0.0 0.0 0.0 0.0
 -0.8812706120384745 -0.4277354878674174 0.0 0.0 0.0 0.0 0.0 0.0
 0.0 0.0 0.0 0.0 0.0 0.0 -0.8812706120384745 -0.4277354878674174
 0.0 0.0 0.0 0.0 -0.8812706120384745 -0.4277354878674174 0.0 0.0
3.258375 0.0 0.0 -0.8982687099978974 -0.39038682425373933 0.0 0.0 0.0 0.0
 -0.8982687099978974 -0.39038682425373933 0.0 0.0 0.0 0.0 0.0 0.0
 0.0 0.0 0.0 0.0 0.0 0.0 -0.8982687099978974 -0.39038682425373933
 0.0 0.0 0.0 0.0 -0.8982687099978974 -0.39038682425373933 0.0 0.0
3.30835 0.0 0.0 -0.9136862424522066 -0.3523655053752117 0.0 0.0 0.0 0.0
 -0.9136862424522066 -0.3523655053752117 0.0 0.0 0.0 0.0 0.0 0.0
 0.0 0.0 0.0 0.0 0.0 0.0 -0.9136862424522066 -0.3523655053752117
 0.0 0.0 0.0 0.0 -0.9136862424522066 -0.3523655053752117 0.0 0.0
3.358325 0.0 0.0 -0.9274966883727633 -0.31373831524235285 0.0 0.0 0.0 0.0
 -0.9274966883727633 -0.31373831524235285 0.0 0.0 0.0 0.0 0.0 0.0
 0.0 0.0 0.0 0.0 0.0 0.0 -0.9274966883727633 -0.31373831524235285
 0.0 0.0 0.0 0.0 -0.9274966883727633 -0.31373831524235285 0.0 0.0
3.4083 0.0 0.0 -0.9396763449285942 -0.27457308075896647 0.0 0.0 0.0 0.0
 -0.9396763449285942 -0.27457308075896647 0.0 0.0 0.0 0.0 0.0 0.0
 0.0 0.0 0.0 0.0 0.0 0.0 -0.9396763449285942 -0.27457308075896647
 0.0 0.0 0.0 0.0 -0.9396763449285942 -0.27457308075896647 0.0 0.0
3.458275 0.0 0.0 -0.9502043684011063 -0.2349385528620503 0.0 0.0 0.0 0.0
 -0.9502043684011063 -0.2349385528620503 0.0 0.0 0.0 0.0 0.0 0.0
 0.0 0.0 0.0 0.0 0.0 0.0 -0.9502043684011063 -0.2349385528620503
 0.0 0.0 0.0 0.0 -0.9502043684011063 -0.2349385528620503 0.0 0.0
3.50825 0.0 0.0 -0.9590628100853598 -0.1949042860643731 0.0 0.0 0.0 0.0
 -0.9590628100853598 -0.1949042860643731 0.0 0.0 0.0 0.0 0.0 0.0
 0.0 0.0 0.0 0.0 0.0 0.0 -0.9590628100853598 -0.1949042860643731
 0.0 0.0 0.0 0.0 -0.9590628100853598 -0.1949042860643731 0.0 0.0
3.558225 0.0 0.0 -0.9662366471161272 -0.15454051661098683 0.0 0.0 0.0 0.0
 -0.9662366471161272 -0.15454051661098683 0.0 0.0 0.0 0.0 0.0 0.0
 0.0 0.0 0.0 0.0 0.0 0.0 -0.9662366471161272 -0.15454051661098683
 0.0 0.0 0.0 0.0 -0.9662366471161272 -0.15454051661098683 0.0 0.0
3.6082 0.0 0.0 -0.9717138081658384 -0.11391803946332428 0.0 0.0 0.0 0.0
 -0.9717138081658384 -0.11391803946332428 0.0 0.0 0.0 0.0 0.0 0.0
 0.0 0.0 0.0 0.0 0.0 0.0 -0.9717138081658384 -0.11391803946332428
 0.0 0.0 0.0 0.0 -0.9717138081658384 -0.11391803946332428 0.0 0.0
3.658175 0.0 0.0 -0.9754851939704791 -0.07310808432651758 0.0 0.0 0.0 0.0
 -0.9754851939704791 -0.07310808432651758 0.0 0.0 0.0 0.0 0.0 0.0
 0.0 0.0 0.0 0.0 0.0 0.0 -0.9754851939704791 -0.07310808432651758
 0.0 0.0 0.0 0.0 -0.9754851939704791 -0.07310808432651758 0.0 0.0
3.70815 0.0 0.0 -0.9775446926485589 -0.03218219093721722 0.0 0.0 0.0 0.0
 -0.9775446926485589 -0.03218219093721722 0.0 0.0 0.0 0.0 0.0 0.0
 0.0 0.0 0.0 0.0 0.0 0.0 -0.9775446926485589 -0.03218219093721722
 0.0 0.0 0.0 0.0 -0.9775446926485589 -0.03218219093721722 0.0 0.0
3.758125 0.0 0.0 -0.9778891897873595 0.008787916169551565 0.0 0.0 0.0 0.0
 -0.9778891897873595 0.008787916169551565 0.0 0.0 0.0 0.0 0.0 0.0
 0.0 0.0 0.0 0.0 0.0 0.0 -0.9778891897873595 0.008787916169551565
 0.0 0.0 0.0 0.0 -0.9778891897873595 0.008787916169551565 0.0 0.0
3.8081 0.0 0.0 -0.9765185732798336 0.049730453195118006 0.0 0.0 0.0 0.0
 -0.9765185732798336 0.049730453195118006 0.0 0.0 0.0 0.0 0.0 0.0
 0.0 0.0 0.0 0.0 0.0 0.0 -0.9765185732798336 0.049730453195118006
 0.0 0.0 0.0 0.0 -0.9765185732798336 0.049730453195118006 0.0 0.0
3.858075 0.0 0.0 -0.9734357329046985 0.09057370269358826 0.0 0.0 0.0 0.0
 -0.9734357329046985 0.09057370269358826 0.0 0.0 0.0 0.0 0.0 0.0
 0.0 0.0 0.0 0.0 0.0 0.0 -0.9734357329046985 0.09057370269358826
 0.0 0.0 0.0 0.0 -0.9734357329046985 0.09057370269358826 0.0 0.0
3.90805 0.0 0.0 -0.9686465546514663 0.13124613904998678 0.0 0.0 0.0 0.0
 -0.9686465546514663 0.13124613904998678 0.0 0.0 0.0 0.0 0.0 0.0
 0.0 0.0 0.0 0.0 0.0 0.0 -0.9686465546514663 0.13124613904998678
 0.0 0.0 0.0 0.0 -0.9686465546514663 0.13124613904998678 0.0 0.0
3.958025 0.0 0.0 -0.9621599098013328 0.17167655360042217 0.0 0.0 0.0 0.0
 -0.9621599098013328 0.17167655360042217 0.0 0.0 0.0 0.0 0.0 0.0
 0.0 0.0 0.0 0.0 0.0 0.0 -0.9621599098013328 0.17167655360042217
 0.0 0.0 0.0 0.0 -0.9621599098013328 0.17167655360042217 0.0 0.0
4.008 0.0 0.0 -0.9539876387840281 0.21179417917524662 0.0 0.0 0.0 0.0
 -0.9539876387840281 0.21179417917524662 0.0 0.0 0.0 0.0 0.0 0.0
 0.0 0.0 0.0 0.0 0.0 0.0 -0.9539876387840281 0.21179417917524662
 0.0 0.0 0.0 0.0 -0.9539876387840281 0.21179417917524662 0.0 0.0
4.057975 0.0 0.0 -0.9441445298398565 0.25152881384723363 0.0 0.0 0.0 0.0
 -0.9441445298398565 0.25152881384723363 0.0 0.0 0.0 0.0 0.0 0.0
 0.0 0.0 0.0 0.0 0.0 0.0 -0.9441445298398565 0.25152881384723363
 0.0 0.0 0.0 0.0 -0.9441445298398565 0.25152881384723363 0.0 0.0
4.10795 0.0 0.0 -0.9326482925252372 0.290810943668231 0.0 0.0 0.0 0.0
 -0.9326482925252372 0.290810943668231 0.0 0.0 0.0 0.0 0.0 0.0
 0.0 0.0 0.0 0.0 0.0 0.0 -0.9326482925252372 0.290810943668231
 0.0 0.0 0.0 0.0 -0.9326482925252372 0.290810943668231 0.0 0.0
4.157925 0.0 0.0 -0.919519526109076 0.3295718641795545 0.0 0.0 0.0 0.0
 -0.919519526109076 0.3295718641795545 0.0 0.0 0.0 0.0 0.0 0.0
 0.0 0.0 0.0 0.0 0.0 0.0 -0.919519526109076 0.3295718641795545
 0.0 0.0 0.0 0.0 -0.919519526109076 0.3295718641795545 0.0 0.0
4.2079 0.0 0.0 -0.9047816829162255 0.3677438004835604 0.0 0.0 0.0 0.0
 -0.9047816829162255 0.3677438004835604 0.0 0.0 0.0 0.0 0.0 0.0
 0.0 0.0 0.0 0.0 0.0 0.0 -0.9047816829162255 0.3677438004835604
 0.0 0.0 0.0 0.0 -0.9047816829162255 0.3677438004835604 0.0 0.0
4.257875 0.0 0.0 -0.8884610266831183 0.4052600256664256 0.0 0.0 0.0 0.0
 -0.8884610266831183 0.4052600256664256 0.0 0.0 0.0 0.0 0.0 0.0
 0.0 0.0 0.0 0.0 0.0 0.0 -0.8884610266831183 0.4052600256664256
 0.0 0.0 0.0 0.0 -0.8884610266831183 0.4052600256664256 0.0 0.0
4.30785 0.0 0.0 -0.8705865859993838 0.44205497736504584 0.0 0.0 0.0 0.0
 -0.8705865859993838 0.44205497736504584 0.0 0.0 0.0 0.0 0.0 0.0
 0.0 0.0 0.0 0.0 0.0 0.0 -0.8705865859993838 0.44205497736504584
 0.0 0.0 0.0 0.0 -0.8705865859993838 0.44205497736504584 0.0 0.0
4.357825 0.0 0.0 -0.8511901029178403 0.47806437227427573 0.0 0.0 0.0 0.0
 -0.8511901029178403 0.47806437227427573 0.0 0.0 0.0 0.0 0.0 0.0
 0.0 0.0 0.0 0.0 0.0 0.0 -0.8511901029178403 0.47806437227427573
 0.0 0.0 0.0 0.0 -0.8511901029178403 0.47806437227427573 0.0 0.0
4.4078 0.0 0.0 -0.830305976823692 0.51322531839437 0.0 0.0 0.0 0.0
 -0.830305976823692 0.51322531839437 0.0 0.0 0.0 0.0 0.0 0.0
 0.0 0.0 0.0 0.0 0.0 0.0 -0.830305976823692 0.51322531839437
 0.0 0.0 0.0 0.0 -0.830305976823692 0.51322531839437 0.0 0.0
4.457775 0.0 0.0 -0.8079712036620507 0.5474764248224698 0.0 0.0 0.0 0.0
 -0.8079712036620507 0.5474764248224698 0.0 0.0 0.0 0.0 0.0 0.0
 0.0 0.0 0.0 0.0 0.0 0.0 -0.8079712036620507 0.5474764248224698
 0.0 0.0 0.0 0.0 -0.8079712036620507 0.5474764248224698 0.0 0.0
4.50775 0.0 0.0 -0.7842253106310023 0.5807579088963153 0.0 0.0 0.0 0.0
 -0.7842253106310023 0.5807579088963153 0.0 0.0 0.0 0.0 0.0 0.0
 0.0 0.0 0.0 0.0 0.0 0.0 -0.7842253106310023 0.5807579088963153
 0.0 0.0 0.0 0.0 -0.7842253106310023 0.5807579088963153 0.0 0.0
4.557725 0.0 0.0 -0.7591102864553587 0.6130117005030372 0.0 0.0 0.0 0.0
 -0.7591102864553587 0.6130117005030372 0.0 0.0 0.0 0.0 0.0 0.0
 0.0 0.0 0.0 0.0 0.0 0.0 -0.7591102864553587 0.6130117005030372
 0.0 0.0 0.0 0.0 -0.7591102864553587 0.6130117005030372 0.0 0.0
4.6077 0.0 0.0 -0.732670507363949 0.6441815433708752 0.0 0.0 0.0 0.0
 -0.732670507363949 0.6441815433708752 0.0 0.0 0.0 0.0 0.0 0.0
 0.0 0.0 0.0 0.0 0.0 0.0 -0.732670507363949 0.6441815433708752
 0.0 0.0 0.0 0.0 -0.732670507363949 0.6441815433708752 0.0 0.0
4.657675 0.0 0.0 -0.7049526589008133 0.674213093166972 0.0 0.0 0.0 0.0
 -0.7049526589008133 0.674213093166972 0.0 0.0 0.0 0.0 0.0 0.0
 0.0 0.0 0.0 0.0 0.0 0.0 -0.7049526589008133 0.674213093166972
 0.0 0.0 0.0 0.0 -0.7049526589008133 0.674213093166972 0.0 0.0
4.70765 0.0 0.0 -0.6760056537079195 0.7030540122300318 0.0 0.0 0.0 0.0
 -0.6760056537079195 0.7030540122300318 0.0 0.0 0.0 0.0 0.0 0.0
 0.0 0.0 0.0 0.0 0.0 0.0 -0.6760056537079195 0.7030540122300318
 0.0 0.0 0.0 0.0 -0.6760056537079195 0.7030540122300318 0.0 0.0
4.757625 0.0 0.0 -0.6458805454240611 0.7306540607725448 0.0 0.0 0.0 0.0
 -0.6458805454240611 0.7306540607725448 0.0 0.0 0.0 0.0 0.0 0.0
 0.0 0.0 0.0 0.0 0.0 0.0 -0.6458805454240611 0.7306540607725448
 0.0 0.0 0.0 0.0 -0.6458805454240611 0.7306540607725448 0.0 0.0
4.8076 0.0 0.0 -0.6146304388513704 0.7569651843934798 0.0 0.0 0.0 0.0
 -0.6146304388513704 0.7569651843934798 0.0 0.0 0.0 0.0 0.0 0.0
 0.0 0.0 0.0 0.0 0.0 0.0 -0.6146304388513704 0.7569651843934798
 0.0 0.0 0.0 0.0 -0.6146304388513704 0.7569651843934798 0.0 0.0
4.857575 0.0 0.0 -0.5823103965473796 0.781941597748852 0.0 0.0 0.0 0.0
 -0.5823103965473796 0.781941597748852 0.0 0.0 0.0 0.0 0.0 0.0
 0.0 0.0 0.0 0.0 0.0 0.0 -0.5823103965473796 0.781941597748852
 0.0 0.0 0.0 0.0 -0.5823103965473796 0.781941597748852 0.0 0.0
4.90755 0.0 0.0 -0.5489773420068101 0.8055398642343065 0.0 0.0 0.0 0.0
 -0.5489773420068101 0.8055398642343065 0.0 0.0 0.0 0.0 0.0 0.0
 0.0 0.0 0.0 0.0 0.0 0.0 -0.5489773420068101 0.8055398642343065
 0.0 0.0 0.0 0.0 -0.5489773420068101 0.8055398642343065 0.0 0.0
4.957525 0.0 0.0 -0.5146899596031961 0.8277189715408799 0.0 0.0 0.0 0.0
 -0.5146899596031961 0.8277189715408799 0.0 0.0 0.0 0.0 0.0 0.0
 0.0 0.0 0.0 0.0 0.0 0.0 -0.5146899596031961 0.8277189715408799
 0.0 0.0 0.0 0.0 -0.5146899596031961 0.8277189715408799 0.0 0.0
5.0075 0.0 0.0 -0.47950859146610686 0.8484404029523425 0.0 0.0 0.0 0.0
 -0.47950859146610686 0.8484404029523425 0.0 0.0 0.0 0.0 0.0 0.0
 0.0 0.0 0.0 0.0 0.0 0.0 -0.47950859146610686 0.8484404029523425
 0.0 0.0 0.0 0.0 -0.47950859146610686 0.8484404029523425 0.0 0.0
5.057475 0.0 0.0 -0.4434951314750582 0.867668204260007 0.0 0.0 0.0 0.0
 -0.4434951314750582 0.867668204260007 0.0 0.0 0.0 0.0 0.0 0.0
 0.0 0.0 0.0 0.0 0.0 0.0 -0.4434951314750582 0.867668204260007
 0.0 0.0 0.0 0.0 -0.4434951314750582 0.867668204260007 0.0 0.0
5.10745 0.0 0.0 -0.4067129165562351 0.8853690461785744 0.0 0.0 0.0 0.0
 -0.4067129165562351 0.8853690461785744 0.0 0.0 0.0 0.0 0.0 0.0
 0.0 0.0 0.0 0.0 0.0 0.0 -0.4067129165562351 0.8853690461785744
 0.0 0.0 0.0 0.0 -0.4067129165562351 0.8853690461785744 0.0 0.0
5.157425 0.0 0.0 -0.36922661547282 0.9015122821545031 0.0 0.0 0.0 0.0
 -0.36922661547282 0.9015122821545031 0.0 0.0 0.0 0.0 0.0 0.0
 0.0 0.0 0.0 0.0 0.0 0.0 -0.36922661547282 0.9015122821545031
 0.0 0.0 0.0 0.0 -0.36922661547282 0.9015122821545031 0.0 0.0
5.2074 0.0 0.0 -0.3311021153040932 0.9160700014664525 0.0 0.0 0.0 0.0
 -0.3311021153040932 0.9160700014664525 0.0 0.0 0.0 0.0 0.0 0.0
 0.0 0.0 0.0 0.0 0.0 0.0 -0.3311021153040932 0.9160700014664525
 0.0 0.0 0.0 0.0 -0.3311021153040932 0.9160700014664525 0.0 0.0
5.257375 0.0 0.0 -0.29240640581249044 0.9290170775256228 0.0 0.0 0.0 0.0
 -0.29240640581249044 0.9290170775256228 0.0 0.0 0.0 0.0 0.0 0.0
 0.0 0.0 0.0 0.0 0.0 0.0 -0.29240640581249044 0.9290170775256228
 0.0 0.0 0.0 0.0 -0.29240640581249044 0.9290170775256228 0.0 0.0
5.30735 0.0 0.0 -0.2532074619014503 0.9403312112922358 0.0 0.0 0.0 0.0
 -0.2532074619014503 0.9403312112922358 0.0 0.0 0.0 0.0 0.0 0.0
 0.0 0.0 0.0 0.0 0.0 0.0 -0.2532074619014503 0.9403312112922358
 0.0 0.0 0.0 0.0 -0.2532074619014503 0.9403312112922358 0.0 0.0
5.357325 0.0 0.0 -0.2135741243701992 0.9499929697329618 0.0 0.0 0.0 0.0
 -0.2135741243701992 0.9499929697329618 0.0 0.0 0.0 0.0 0.0 0.0
 0.0 0.0 0.0 0.0 0.0 0.0 -0.2135741243701992 0.9499929697329618
 0.0 0.0 0.0 0.0 -0.2135741243701992 0.9499929697329618 0.0 0.0
5.4073 0.0 0.0 -0.17357597917459905 0.9579858192527907 0.0 0.0 0.0 0.0
 -0.17357597917459905 0.9579858192527907 0.0 0.0 0.0 0.0 0.0 0.0
 0.0 0.0 0.0 0.0 0.0 0.0 -0.17357597917459905 0.9579858192527907
 0.0 0.0 0.0 0.0 -0.17357597917459905 0.9579858192527907 0.0 0.0
5.457275 0.0 0.0 -0.13328323540571294 0.9642961540436685 0.0 0.0 0.0 0.0
 -0.13328323540571294 0.9642961540436685 0.0 0.0 0.0 0.0 0.0 0.0
 0.0 0.0 0.0 0.0 0.0 0.0 -0.13328323540571294 0.9642961540436685
 0.0 0.0 0.0 0.0 -0.13328323540571294 0.9642961540436685 0.0 0.0
5.50725 0.0 0.0 -0.0927666021999953 0.9689133193011195 0.0 0.0 0.0 0.0
 -0.0927666021999953 0.9689133193011195 0.0 0.0 0.0 0.0 0.0 0.0
 0.0 0.0 0.0 0.0 0.0 0.0 -0.0927666021999953 0.9689133193011195
 0.0 0.0 0.0 0.0 -0.0927666021999953 0.9689133193011195 0.0 0.0
5.557225 0.0 0.0 -0.05209716479684253 0.9718296292690729 0.0 0.0 0.0 0.0
 -0.05209716479684253 0.9718296292690729 0.0 0.0 0.0 0.0 0.0 0.0
 0.0 0.0 0.0 0.0 0.0 0.0 -0.05209716479684253 0.9718296292690729
 0.0 0.0 0.0 0.0 -0.05209716479684253 0.9718296292690729 0.0 0.0
5.6072 0.0 0.0 -0.011346259960682762 0.9730403800821803 0.0 0.0 0.0 0.0
 -0.011346259960682762 0.9730403800821803 0.0 0.0 0.0 0.0 0.0 0.0
 0.0 0.0 0.0 0.0 0.0 0.0 -0.011346259960682762 0.9730403800821803
 0.0 0.0 0.0 0.0 -0.011346259960682762 0.9730403800821803 0.0 0.0
5.657175 0.0 0.0 0.02941464901414095 0.9725438573840187 0.0 0.0 0.0 0.0
 0.02941464901414095 0.9725438573840187 0.0 0.0 0.0 0.0 0.0 0.0
 0.0 0.0 0.0 0.0 0.0 0.0 0.02941464901414095 0.9725438573840187
 0.0 0.0 0.0 0.0 0.02941464901414095 0.9725438573840187 0.0 0.0
5.70715 0.0 0.0 0.07011409749668908 0.9703413387087317 0.0 0.0 0.0 0.0
 0.07011409749668908 0.9703413387087317 0.0 0.0 0.0 0.0 0.0 0.0
 0.0 0.0 0.0 0.0 0.0 0.0 0.07011409749668908 0.9703413387087317
 0.0 0.0 0.0 0.0 0.07011409749668908 0.9703413387087317 0.0 0.0
5.757125 0.0 0.0 0.11068074469173793 0.9664370906228283 0.0 0.0 0.0 0.0
 0.11068074469173793 0.9664370906228283 0.0 0.0 0.0 0.0 0.0 0.0
 0.0 0.0 0.0 0.0 0.0 0.0 0.11068074469173793 0.9664370906228283
 0.0 0.0 0.0 0.0 0.11068074469173793 0.9664370906228283 0.0 0.0
5.8071 0.0 0.0 0.1510434985718249 0.9608383606330425 0.0 0.0 0.0 0.0
 0.1510434985718249 0.9608383606330425 0.0 0.0 0.0 0.0 0.0 0.0
 0.0 0.0 0.0 0.0 0.0 0.0 0.1510434985718249 0.9608383606330425
 0.0 0.0 0.0 0.0 0.1510434985718249 0.9608383606330425 0.0 0.0
5.857075 0.0 0.0 0.19113164035031796 0.953555363875315 0.0 0.0 0.0 0.0
 0.19113164035031796 0.953555363875315 0.0 0.0 0.0 0.0 0.0 0.0
 0.0 0.0 0.0 0.0 0.0 0.0 0.19113164035031796 0.953555363875315
 0.0 0.0 0.0 0.0 0.19113164035031796 0.953555363875315 0.0 0.0
5.90705 0.0 0.0 0.23087494827760235 0.9446012646090977 0.0 0.0 0.0 0.0
 0.23087494827760235 0.9446012646090977 0.0 0.0 0.0 0.0 0.0 0.0
 0.0 0.0 0.0 0.0 0.0 0.0 0.23087494827760235 0.9446012646090977
 0.0 0.0 0.0 0.0 0.23087494827760235 0.9446012646090977 0.0 0.0
5.957025 0.0 0.0 0.2702038205436746 0.9339921525502808 0.0 0.0 0.0 0.0
 0.2702038205436746 0.9339921525502808 0.0 0.0 0.0 0.0 0.0 0.0
 0.0 0.0 0.0 0.0 0.0 0.0 0.2702038205436746 0.9339921525502808
 0.0 0.0 0.0 0.0 0.2702038205436746 0.9339921525502808 0.0 0.0
6.007 0.0 0.0 0.3090493970720944 0.9217470140850629 0.0 0.0 0.0 0.0
 0.3090493970720944 0.9217470140850629 0.0 0.0 0.0 0.0 0.0 0.0
 0.0 0.0 0.0 0.0 0.0 0.0 0.3090493970720944 0.9217470140850629
 0.0 0.0 0.0 0.0 0.3090493970720944 0.9217470140850629 0.0 0.0
6.056975 0.0 0.0 0.3473436799921477 0.907887698416062 0.0 0.0 0.0 0.0
 0.3473436799921477 0.907887698416062 0.0 0.0 0.0 0.0 0.0 0.0
 0.0 0.0 0.0 0.0 0.0 0.0 0.3473436799921477 0.907887698416062
 0.0 0.0 0.0 0.0 0.3473436799921477 0.907887698416062 0.0 0.0
6.10695 0.0 0.0 0.38501965257850806 0.8924388787008054 0.0 0.0 0.0 0.0
 0.38501965257850806 0.8924388787008054 0.0 0.0 0.0 0.0 0.0 0.0
 0.0 0.0 0.0 0.0 0.0 0.0 0.38501965257850806 0.8924388787008054
 0.0 0.0 0.0 0.0 0.38501965257850806 0.8924388787008054 0.0 0.0
6.156925 0.0 0.0 0.42201139645029395 0.8754280082515328 0.0 0.0 0.0 0.0
 0.42201139645029395 0.8754280082515328 0.0 0.0 0.0 0.0 0.0 0.0
 0.0 0.0 0.0 0.0 0.0 0.0 0.42201139645029395 0.8754280082515328
 0.0 0.0 0.0 0.0 0.42201139645029395 0.8754280082515328 0.0 0.0
6.2069 0.0 0.0 0.4582542068246198 0.856885271873849 0.0 0.0 0.0 0.0
 0.4582542068246198 0.856885271873849 0.0 0.0 0.0 0.0 0.0 0.0
 0.0 0.0 0.0 0.0 0.0 0.0 0.4582542068246198 0.856885271873849
 0.0 0.0 0.0 0.0 0.4582542068246198 0.856885271873849 0.0 0.0
6.256875 0.0 0.0 0.4936847056230935 0.836843532430281 0.0 0.0 0.0 0.0
 0.4936847056230935 0.836843532430281 0.0 0.0 0.0 0.0 0.0 0.0
 0.0 0.0 0.0 0.0 0.0 0.0 0.4936847056230935 0.836843532430281
 0.0 0.0 0.0 0.0 0.4936847056230935 0.836843532430281 0.0 0.0
6.30685 0.0 0.0 0.5282409522335174 0.8153382727231594 0.0 0.0 0.0 0.0
 0.5282409522335174 0.8153382727231594 0.0 0.0 0.0 0.0 0.0 0.0
 0.0 0.0 0.0 0.0 0.0 0.0 0.5282409522335174 0.8153382727231594
 0.0 0.0 0.0 0.0 0.5282409522335174 0.8153382727231594 0.0 0.0
6.356825 0.0 0.0 0.5618625517332393 0.7924075327993866 0.0 0.0 0.0 0.0
 0.5618625517332393 0.7924075327993866 0.0 0.0 0.0 0.0 0.0 0.0
 0.0 0.0 0.0 0.0 0.0 0.0 0.5618625517332393 0.7924075327993866
 0.0 0.0 0.0 0.0 0.5618625517332393 0.7924075327993866 0.0 0.0
6.4068 0.0 0.0 0.5944907603850145 0.7680918427876967 0.0 0.0 0.0 0.0
 0.5944907603850145 0.7680918427876967 0.0 0.0 0.0 0.0 0.0 0.0
 0.0 0.0 0.0 0.0 0.0 0.0 0.5944907603850145 0.7680918427876967
 0.0 0.0 0.0 0.0 0.5944907603850145 0.7680918427876967 0.0 0.0
6.456775 0.0 0.0 0.6260685882210849 0.7424341513867903 0.0 0.0 0.0 0.0
 0.6260685882210849 0.7424341513867903 0.0 0.0 0.0 0.0 0.0 0.0
 0.0 0.0 0.0 0.0 0.0 0.0 0.6260685882210849 0.7424341513867903
 0.0 0.0 0.0 0.0 0.6260685882210849 0.7424341513867903 0.0 0.0
6.50675 0.0 0.0 0.6565408985362874 0.7154797501303501 0.0 0.0 0.0 0.0
 0.6565408985362874 0.7154797501303501 0.0 0.0 0.0 0.0 0.0 0.0
 0.0 0.0 0.0 0.0 0.0 0.0 0.6565408985362874 0.7154797501303501
 0.0 0.0 0.0 0.0 0.6565408985362874 0.7154797501303501 0.0 0.0
6.556725 0.0 0.0 0.6858545041164764 0.6872761935622888 0.0 0.0 0.0 0.0
 0.6858545041164764 0.6872761935622888 0.0 0.0 0.0 0.0 0.0 0.0
 0.0 0.0 0.0 0.0 0.0 0.0 0.6858545041164764 0.6872761935622888
 0.0 0.0 0.0 0.0 0.6858545041164764 0.6872761935622888 0.0 0.0
6.6067 0.0 0.0 0.7139582600342607 0.657873215462751 0.0 0.0 0.0 0.0
 0.7139582600342607 0.657873215462751 0.0 0.0 0.0 0.0 0.0 0.0
 0.0 0.0 0.0 0.0 0.0 0.0 0.7139582600342607 0.657873215462751
 0.0 0.0 0.0 0.0 0.7139582600342607 0.657873215462751 0.0 0.0
6.656675 0.0 0.0 0.7408031528500886 0.6273226412722896 0.0 0.0 0.0 0.0
 0.7408031528500886 0.6273226412722896 0.0 0.0 0.0 0.0 0.0 0.0
 0.0 0.0 0.0 0.0 0.0 0.0 0.7408031528500886 0.6273226412722896
 0.0 0.0 0.0 0.0 0.7408031528500886 0.6273226412722896 0.0 0.0
6.70665 0.0 0.0 0.7663423860631043 0.5956782968682114 0.0 0.0 0.0 0.0
 0.7663423860631043 0.5956782968682114 0.0 0.0 0.0 0.0 0.0 0.0
 0.0 0.0 0.0 0.0 0.0 0.0 0.7663423860631043 0.5956782968682114
 0.0 0.0 0.0 0.0 0.7663423860631043 0.5956782968682114 0.0 0.0
6.756625 0.0 0.0 0.7905314616626778 0.562995913853561 0.0 0.0 0.0 0.0
 0.7905314616626778 0.562995913853561 0.0 0.0 0.0 0.0 0.0 0.0
 0.0 0.0 0.0 0.0 0.0 0.0 0.7905314616626778 0.562995913853561
 0.0 0.0 0.0 0.0 0.7905314616626778 0.562995913853561 0.0 0.0
6.8066 0.0 0.0 0.813328257638479 0.5293330315251762 0.0 0.0 0.0 0.0
 0.813328257638479 0.5293330315251762 0.0 0.0 0.0 0.0 0.0 0.0
 0.0 0.0 0.0 0.0 0.0 0.0 0.813328257638479 0.5293330315251762
 0.0 0.0 0.0 0.0 0.813328257638479 0.5293330315251762 0.0 0.0
6.856575 0.0 0.0 0.8346931013139918 0.49474889569312713 0.0 0.0 0.0 0.0
 0.8346931013139918 0.49474889569312713 0.0 0.0 0.0 0.0 0.0 0.0
 0.0 0.0 0.0 0.0 0.0 0.0 0.8346931013139918 0.49474889569312713
 0.0 0.0 0.0 0.0 0.8346931013139918 0.49474889569312713 0.0 0.0
6.90655 0.0 0.0 0.8545888383757314 0.4593043545292909 0.0 0.0 0.0 0.0
 0.8545888383757314 0.4593043545292909 0.0 0.0 0.0 0.0 0.0 0.0
 0.0 0.0 0.0 0.0 0.0 0.0 0.8545888383757314 0.4593043545292909
 0.0 0.0 0.0 0.0 0.8545888383757314 0.4593043545292909 0.0 0.0
6.956525 0.0 0.0 0.8729808974779865 0.4230617516280083 0.0 0.0 0.0 0.0
 0.8729808974779865 0.4230617516280083 0.0 0.0 0.0 0.0 0.0 0.0
 0.0 0.0 0.0 0.0 0.0 0.0 0.8729808974779865 0.4230617516280083
 0.0 0.0 0.0 0.0 0.8729808974779865 0.4230617516280083 0.0 0.0
7.0065 0.0 0.0 0.8898373503106675 0.38608481646662013 0.0 0.0 0.0 0.0
 0.8898373503106675 0.38608481646662013 0.0 0.0 0.0 0.0 0.0 0.0
 0.0 0.0 0.0 0.0 0.0 0.0 0.8898373503106675 0.38608481646662013
 0.0 0.0 0.0 0.0 0.8898373503106675 0.38608481646662013 0.0 0.0
7.056475 0.0 0.0 0.9051289670258194 0.34843855245819094 0.0 0.0 0.0 0.0
 0.9051289670258194 0.34843855245819094 0.0 0.0 0.0 0.0 0.0 0.0
 0.0 0.0 0.0 0.0 0.0 0.0 0.9051289670258194 0.34843855245819094
 0.0 0.0 0.0 0.0 0.9051289670258194 0.34843855245819094 0.0 0.0
7.10645 0.0 0.0 0.9188292669264838 0.31018912279296396 0.0 0.0 0.0 0.0
 0.9188292669264838 0.31018912279296396 0.0 0.0 0.0 0.0 0.0 0.0
 0.0 0.0 0.0 0.0 0.0 0.0 0.9188292669264838 0.31018912279296396
 0.0 0.0 0.0 0.0 0.9188292669264838 0.31018912279296396 0.0 0.0
7.156425 0.0 0.0 0.930914564329946 0.2714037342688317 0.0 0.0 0.0 0.0
 0.930914564329946 0.2714037342688317 0.0 0.0 0.0 0.0 0.0 0.0
 0.0 0.0 0.0 0.0 0.0 0.0 0.930914564329946 0.2714037342688317
 0.0 0.0 0.0 0.0 0.930914564329946 0.2714037342688317 0.0 0.0
7.2064 0.0 0.0 0.9413640095258156 0.23215051931474073 0.0 0.0 0.0 0.0
 0.9413640095258156 0.23215051931474073 0.0 0.0 0.0 0.0 0.0 0.0
 0.0 0.0 0.0 0.0 0.0 0.0 0.9413640095258156 0.23215051931474073
 0.0 0.0 0.0 0.0 0.9413640095258156 0.23215051931474073 0.0 0.0
7.256375 0.0 0.0 0.9501596247580503 0.19249841641394616 0.0 0.0 0.0 0.0
 0.9501596247580503 0.19249841641394616 0.0 0.0 0.0 0.0 0.0 0.0
 0.0 0.0 0.0 0.0 0.0 0.0 0.9501596247580503 0.19249841641394616
 0.0 0.0 0.0 0.0 0.9501596247580503 0.19249841641394616 0.0 0.0
7.30635 0.0 0.0 0.9572863351687206 0.152517049136875 0.0 0.0 0.0 0.0
 0.9572863351687206 0.152517049136875 0.0 0.0 0.0 0.0 0.0 0.0
 0.0 0.0 0.0 0.0 0.0 0.0 0.9572863351687206 0.152517049136875
 0.0 0.0 0.0 0.0 0.9572863351687206 0.152517049136875 0.0 0.0
7.356325 0.0 0.0 0.9627319946501648 0.11227660399576431 0.0 0.0 0.0 0.0
 0.9627319946501648 0.11227660399576431 0.0 0.0 0.0 0.0 0.0 0.0
 0.0 0.0 0.0 0.0 0.0 0.0 0.9627319946501648 0.11227660399576431
 0.0 0.0 0.0 0.0 0.9627319946501648 0.11227660399576431 0.0 0.0
7.4063 0.0 0.0 0.966487406561109 0.07184770733522142 0.0 0.0 0.0 0.0
 0.966487406561109 0.07184770733522142 0.0 0.0 0.0 0.0 0.0 0.0
 0.0 0.0 0.0 0.0 0.0 0.0 0.966487406561109 0.07184770733522142
 0.0 0.0 0.0 0.0 0.966487406561109 0.07184770733522142 0.0 0.0
7.456275 0.0 0.0 0.9685463392713322 0.0313013014745573 0.0 0.0 0.0 0.0
 0.9685463392713322 0.0313013014745573 0.0 0.0 0.0 0.0 0.0 0.0
 0.0 0.0 0.0 0.0 0.0 0.0 0.9685463392713322 0.0313013014745573
 0.0 0.0 0.0 0.0 0.9685463392713322 0.0313013014745573 0.0 0.0
7.50625 0.0 0.0 0.9689055365085162 -0.009291479681017562 0.0 0.0 0.0 0.0
 0.9689055365085162 -0.009291479681017562 0.0 0.0 0.0 0.0 0.0 0.0
 0.0 0.0 0.0 0.0 0.0 0.0 0.9689055365085162 -0.009291479681017562
 0.0 0.0 0.0 0.0 0.9689055365085162 -0.009291479681017562 0.0 0.0
7.556225 0.0 0.0 0.9675647224900352 -0.04985943534229397 0.0 0.0 0.0 0.0
 0.9675647224900352 -0.04985943534229397 0.0 0.0 0.0 0.0 0.0 0.0
 0.0 0.0 0.0 0.0 0.0 0.0 0.9675647224900352 -0.04985943534229397
 0.0 0.0 0.0 0.0 0.9675647224900352 -0.04985943534229397 0.0 0.0
7.6062 0.0 0.0 0.964526601831575 -0.09033142263260249 0.0 0.0 0.0 0.0
 0.964526601831575 -0.09033142263260249 0.0 0.0 0.0 0.0 0.0 0.0
 0.0 0.0 0.0 0.0 0.0 0.0 0.964526601831575 -0.09033142263260249
 0.0 0.0 0.0 0.0 0.964526601831575 -0.09033142263260249 0.0 0.0
7.656175 0.0 0.0 0.9597968542336238 -0.13063648126029168 0.0 0.0 0.0 0.0
 0.9597968542336238 -0.13063648126029168 0.0 0.0 0.0 0.0 0.0 0.0
 0.0 0.0 0.0 0.0 0.0 0.0 0.9597968542336238 -0.13063648126029168
 0.0 0.0 0.0 0.0 0.9597968542336238 -0.13063648126029168 0.0 0.0
7.70615 0.0 0.0 0.9533841239560256 -0.17070395784875345 0.0 0.0 0.0 0.0
 0.9533841239560256 -0.17070395784875345 0.0 0.0 0.0 0.0 0.0 0.0
 0.0 0.0 0.0 0.0 0.0 0.0 0.9533841239560256 -0.17070395784875345
 0.0 0.0 0.0 0.0 0.9533841239560256 -0.17070395784875345 0.0 0.0
7.756125 0.0 0.0 0.9453000040999132 -0.2104636297062734 0.0 0.0 0.0 0.0
 0.9453000040999132 -0.2104636297062734 0.0 0.0 0.0 0.0 0.0 0.0
 0.0 0.0 0.0 0.0 0.0 0.0 0.9453000040999132 -0.2104636297062734
 0.0 0.0 0.0 0.0 0.9453000040999132 -0.2104636297062734 0.0 0.0
7.8061 0.0 0.0 0.9355590157254372 -0.24984582781890538 0.0 0.0 0.0 0.0
 0.9355590157254372 -0.24984582781890538 0.0 0.0 0.0 0.0 0.0 0.0
 0.0 0.0 0.0 0.0 0.0 0.0 0.9355590157254372 -0.24984582781890538
 0.0 0.0 0.0 0.0 0.9355590157254372 -0.24984582781890538 0.0 0.0
7.856075 0.0 0.0 0.9241785818427388 -0.2887815588510594 0.0 0.0 0.0 0.0
 0.9241785818427388 -0.2887815588510594 0.0 0.0 0.0 0.0 0.0 0.0
 0.0 0.0 0.0 0.0 0.0 0.0 0.9241785818427388 -0.2887815588510594
 0.0 0.0 0.0 0.0 0.9241785818427388 -0.2887815588510594 0.0 0.0
7.90605 0.0 0.0 0.911178996322606 -0.32720262594020344 0.0 0.0 0.0 0.0
 0.911178996322606 -0.32720262594020344 0.0 0.0 0.0 0.0 0.0 0.0
 0.0 0.0 0.0 0.0 0.0 0.0 0.911178996322606 -0.32720262594020344
 0.0 0.0 0.0 0.0 0.911178996322606 -0.32720262594020344 0.0 0.0
7.956025 0.0 0.0 0.8965833877821283 -0.3650417480742533 0.0 0.0 0.0 0.0
 0.8965833877821283 -0.3650417480742533 0.0 0.0 0.0 0.0 0.0 0.0
 0.0 0.0 0.0 0.0 0.0 0.0 0.8965833877821283 -0.3650417480742533
 0.0 0.0 0.0 0.0 0.8965833877821283 -0.3650417480742533 0.0 0.0
8.006 0.0 0.0 0.8804176785094732 -0.4022326778427333 0.0 0.0 0.0 0.0
 0.8804176785094732 -0.4022326778427333 0.0 0.0 0.0 0.0 0.0 0.0
 0.0 0.0 0.0 0.0 0.0 0.0 0.8804176785094732 -0.4022326778427333
 0.0 0.0 0.0 0.0 0.8804176785094732 -0.4022326778427333 0.0 0.0
8.055975 0.0 0.0 0.8627105385005804 -0.4387103173556703 0.0 0.0 0.0 0.0
 0.8627105385005804 -0.4387103173556703 0.0 0.0 0.0 0.0 0.0 0.0
 0.0 0.0 0.0 0.0 0.0 0.0 0.8627105385005804 -0.4387103173556703
 0.0 0.0 0.0 0.0 0.8627105385005804 -0.4387103173556703 0.0 0.0
8.10595 0.0 0.0 0.8434933346891234 -0.4744108321274413 0.0 0.0 0.0 0.0
 0.8434933346891234 -0.4744108321274413 0.0 0.0 0.0 0.0 0.0 0.0
 0.0 0.0 0.0 0.0 0.0 0.0 0.8434933346891234 -0.4744108321274413
 0.0 0.0 0.0 0.0 0.8434933346891234 -0.4744108321274413 0.0 0.0
8.155925 0.0 0.0 0.8228000754595074 -0.5092717627263498 0.0 0.0 0.0 0.0
 0.8228000754595074 -0.5092717627263498 0.0 0.0 0.0 0.0 0.0 0.0
 0.0 0.0 0.0 0.0 0.0 0.0 0.8228000754595074 -0.5092717627263498
 0.0 0.0 0.0 0.0 0.8228000754595074 -0.5092717627263498 0.0 0.0
8.2059 0.0 0.0 0.800667350540893 -0.5432321339947289 0.0 0.0 0.0 0.0
 0.800667350540893 -0.5432321339947289 0.0 0.0 0.0 0.0 0.0 0.0
 0.0 0.0 0.0 0.0 0.0 0.0 0.800667350540893 -0.5432321339947289
 0.0 0.0 0.0 0.0 0.800667350540893 -0.5432321339947289 0.0 0.0
8.255875 0.0 0.0 0.7771342663883545 -0.5762325616485615 0.0 0.0 0.0 0.0
 0.7771342663883545 -0.5762325616485615 0.0 0.0 0.0 0.0 0.0 0.0
 0.0 0.0 0.0 0.0 0.0 0.0 0.7771342663883545 -0.5762325616485615
 0.0 0.0 0.0 0.0 0.7771342663883545 -0.5762325616485615 0.0 0.0
8.30585 0.0 0.0 0.7522423771651344 -0.6082153560703056 0.0 0.0 0.0 0.0
 0.7522423771651344 -0.6082153560703056 0.0 0.0 0.0 0.0 0.0 0.0
 0.0 0.0 0.0 0.0 0.0 0.0 0.7522423771651344 -0.6082153560703056
 0.0 0.0 0.0 0.0 0.7522423771651344 -0.6082153560703056 0.0 0.0
8.355825 0.0 0.0 0.7260356114476566 -0.639124623113529 0.0 0.0 0.0 0.0
 0.7260356114476566 -0.639124623113529 0.0 0.0 0.0 0.0 0.0 0.0
 0.0 0.0 0.0 0.0 0.0 0.0 0.7260356114476566 -0.639124623113529
 0.0 0.0 0.0 0.0 0.7260356114476566 -0.639124623113529 0.0 0.0
8.4058 0.0 0.0 0.6985601947824533 -0.668906361743205 0.0 0.0 0.0 0.0
 0.6985601947824533 -0.668906361743205 0.0 0.0 0.0 0.0 0.0 0.0
 0.0 0.0 0.0 0.0 0.0 0.0 0.6985601947824533 -0.668906361743205
 0.0 0.0 0.0 0.0 0.6985601947824533 -0.668906361743205 0.0 0.0
8.455775 0.0 0.0 0.6698645682313763 -0.6975085583411317 0.0 0.0 0.0 0.0
 0.6698645682313763 -0.6975085583411317 0.0 0.0 0.0 0.0 0.0 0.0
 0.0 0.0 0.0 0.0 0.0 0.0 0.6698645682313763 -0.6975085583411317
 0.0 0.0 0.0 0.0 0.6698645682313763 -0.6975085583411317 0.0 0.0
8.50575 0.0 0.0 0.6399993030484967 -0.7248812775117731 0.0 0.0 0.0 0.0
 0.6399993030484967 -0.7248812775117731 0.0 0.0 0.0 0.0 0.0 0.0
 0.0 0.0 0.0 0.0 0.0 0.0 0.6399993030484967 -0.7248812775117731
 0.0 0.0 0.0 0.0 0.6399993030484967 -0.7248812775117731 0.0 0.0
8.555725 0.0 0.0 0.6090170116388323 -0.7509767492300014 0.0 0.0 0.0 0.0
 0.6090170116388323 -0.7509767492300014 0.0 0.0 0.0 0.0 0.0 0.0
 0.0 0.0 0.0 0.0 0.0 0.0 0.6090170116388323 -0.7509767492300014
 0.0 0.0 0.0 0.0 0.6090170116388323 -0.7509767492300014 0.0 0.0
8.6057 0.0 0.0 0.5769722549555649 -0.7757494521786201 0.0 0.0 0.0 0.0
 0.5769722549555649 -0.7757494521786201 0.0 0.0 0.0 0.0 0.0 0.0
 0.0 0.0 0.0 0.0 0.0 0.0 0.5769722549555649 -0.7757494521786201
 0.0 0.0 0.0 0.0 0.5769722549555649 -0.7757494521786201 0.0 0.0
8.655675 0.0 0.0 0.5439214464985714 -0.7991561931303058 0.0 0.0 0.0 0.0
 0.5439214464985714 -0.7991561931303058 0.0 0.0 0.0 0.0 0.0 0.0
 0.0 0.0 0.0 0.0 0.0 0.0 0.5439214464985714 -0.7991561931303058
 0.0 0.0 0.0 0.0 0.5439214464985714 -0.7991561931303058 0.0 0.0
8.70565 0.0 0.0 0.5099227530830789 -0.8211561822354932 0.0 0.0 0.0 0.0
 0.5099227530830789 -0.8211561822354932 0.0 0.0 0.0 0.0 0.0 0.0
 0.0 0.0 0.0 0.0 0.0 0.0 0.5099227530830789 -0.8211561822354932
 0.0 0.0 0.0 0.0 0.5099227530830789 -0.8211561822354932 0.0 0.0
8.755625 0.0 0.0 0.4750359925528602 -0.8417111040849644 0.0 0.0 0.0 0.0
 0.4750359925528602 -0.8417111040849644 0.0 0.0 0.0 0.0 0.0 0.0
 0.0 0.0 0.0 0.0 0.0 0.0 0.4750359925528602 -0.8417111040849644
 0.0 0.0 0.0 0.0 0.4750359925528602 -0.8417111040849644 0.0 0.0
8.8056 0.0 0.0 0.4393225286176929 -0.8607851844233267 0.0 0.0 0.0 0.0
 0.4393225286176929 -0.8607851844233267 0.0 0.0 0.0 0.0 0.0 0.0
 0.0 0.0 0.0 0.0 0.0 0.0 0.4393225286176929 -0.8607851844233267
 0.0 0.0 0.0 0.0 0.4393225286176929 -0.8607851844233267 0.0 0.0
8.855575 0.0 0.0 0.40284516299986856 -0.8783452523971754 0.0 0.0 0.0 0.0
 0.40284516299986856 -0.8783452523971754 0.0 0.0 0.0 0.0 0.0 0.0
 0.0 0.0 0.0 0.0 0.0 0.0 0.40284516299986856 -0.8783452523971754
 0.0 0.0 0.0 0.0 0.40284516299986856 -0.8783452523971754 0.0 0.0
8.90555 0.0 0.0 0.36566802507916646 -0.8943607982296108 0.0 0.0 0.0 0.0
 0.36566802507916646 -0.8943607982296108 0.0 0.0 0.0 0.0 0.0 0.0
 0.0 0.0 0.0 0.0 0.0 0.0 0.36566802507916646 -0.8943607982296108
 0.0 0.0 0.0 0.0 0.36566802507916646 -0.8943607982296108 0.0 0.0
8.955525 0.0 0.0 0.32785645923010337 -0.9088040262207916 0.0 0.0 0.0 0.0
 0.32785645923010337 -0.9088040262207916 0.0 0.0 0.0 0.0 0.0 0.0
 0.0 0.0 0.0 0.0 0.0 0.0 0.32785645923010337 -0.9088040262207916
 0.0 0.0 0.0 0.0 0.32785645923010337 -0.9088040262207916 0.0 0.0
9.0055 0.0 0.0 0.2894769100492556 -0.9216499029824186 0.0 0.0 0.0 0.0
 0.2894769100492556 -0.9216499029824186 0.0 0.0 0.0 0.0 0.0 0.0
 0.0 0.0 0.0 0.0 0.0 0.0 0.2894769100492556 -0.9216499029824186
 0.0 0.0 0.0 0.0 0.2894769100492556 -0.9216499029824186 0.0 0.0
9.055475 0.0 0.0 0.25059680567414433 -0.9328762008224025 0.0 0.0 0.0 0.0
 0.25059680567414433 -0.9328762008224025 0.0 0.0 0.0 0.0 0.0 0.0
 0.0 0.0 0.0 0.0 0.0 0.0 0.25059680567414433 -0.9328762008224025
 0.0 0.0 0.0 0.0 0.25059680567414433 -0.9328762008224025 0.0 0.0
9.10545 0.0 0.0 0.2112844393984526 -0.9424635362044901 0.0 0.0 0.0 0.0
 0.2112844393984526 -0.9424635362044901 0.0 0.0 0.0 0.0 0.0 0.0
 0.0 0.0 0.0 0.0 0.0 0.0 0.2112844393984526 -0.9424635362044901
 0.0 0.0 0.0 0.0 0.2112844393984526 -0.9424635362044901 0.0 0.0
9.155425 0.0 0.0 0.17160884979132376 -0.9503954032162575 0.0 0.0 0.0 0.0
 0.17160884979132376 -0.9503954032162575 0.0 0.0 0.0 0.0 0.0 0.0
 0.0 0.0 0.0 0.0 0.0 0.0 0.17160884979132376 -0.9503954032162575
 0.0 0.0 0.0 0.0 0.17160884979132376 -0.9503954032162575 0.0 0.0
9.2054 0.0 0.0 0.13163969953108276 -0.9566582019876331 0.0 0.0 0.0 0.0
 0.13163969953108276 -0.9566582019876331 0.0 0.0 0.0 0.0 0.0 0.0
 0.0 0.0 0.0 0.0 0.0 0.0 0.13163969953108276 -0.9566582019876331
 0.0 0.0 0.0 0.0 0.13163969953108276 -0.9566582019876331 0.0 0.0
9.255375 0.0 0.0 0.09144715316589726 -0.9612412620109839 0.0 0.0 0.0 0.0
 0.09144715316589726 -0.9612412620109839 0.0 0.0 0.0 0.0 0.0 0.0
 0.0 0.0 0.0 0.0 0.0 0.0 0.09144715316589726 -0.9612412620109839
 0.0 0.0 0.0 0.0 0.09144715316589726 -0.9612412620109839 0.0 0.0
9.30535 0.0 0.0 0.051101754015817596 -0.9641368603227216 0.0 0.0 0.0 0.0
 0.051101754015817596 -0.9641368603227216 0.0 0.0 0.0 0.0 0.0 0.0
 0.0 0.0 0.0 0.0 0.0 0.0 0.051101754015817596 -0.9641368603227216
 0.0 0.0 0.0 0.0 0.051101754015817596 -0.9641368603227216 0.0 0.0
9.355325 0.0 0.0 0.010674300432029125 -0.9653402345154107 0.0 0.0 0.0 0.0
 0.010674300432029125 -0.9653402345154107 0.0 0.0 0.0 0.0 0.0 0.0
 0.0 0.0 0.0 0.0 0.0 0.0 0.010674300432029125 -0.9653402345154107
 0.0 0.0 0.0 0.0 0.010674300432029125 -0.9653402345154107 0.0 0.0
9.4053 0.0 0.0 -0.029764278369702205 -0.9648495905584171 0.0 0.0 0.0 0.0
 -0.029764278369702205 -0.9648495905584171 0.0 0.0 0.0 0.0 0.0 0.0
 0.0 0.0 0.0 0.0 0.0 0.0 -0.029764278369702205 -0.9648495905584171
 0.0 0.0 0.0 0.0 -0.029764278369702205 -0.9648495905584171 0.0 0.0
9.455275 0.0 0.0 -0.070143046683728 -0.9626661054142343 0.0 0.0 0.0 0.0
 -0.070143046683728 -0.9626661054142343 0.0 0.0 0.0 0.0 0.0 0.0
 0.0 0.0 0.0 0.0 0.0 0.0 -0.070143046683728 -0.9626661054142343
 0.0 0.0 0.0 0.0 -0.070143046683728 -0.9626661054142343 0.0 0.0
9.50525 0.0 0.0 -0.1103911866793409 -0.9587939244467543 0.0 0.0 0.0 0.0
 -0.1103911866793409 -0.9587939244467543 0.0 0.0 0.0 0.0 0.0 0.0
 0.0 0.0 0.0 0.0 0.0 0.0 -0.1103911866793409 -0.9587939244467543
 0.0 0.0 0.0 0.0 -0.1103911866793409 -0.9587939244467543 0.0 0.0
9.555225 0.0 0.0 -0.15043812253778543 -0.9532401536268672 0.0 0.0 0.0 0.0
 -0.15043812253778543 -0.9532401536268672 0.0 0.0 0.0 0.0 0.0 0.0
 0.0 0.0 0.0 0.0 0.0 0.0 -0.15043812253778543 -0.9532401536268672
 0.0 0.0 0.0 0.0 -0.15043812253778543 -0.9532401536268672 0.0 0.0
9.6052 0.0 0.0 -0.19021364414392916 -0.9460148465498975 0.0 0.0 0.0 0.0
 -0.19021364414392916 -0.9460148465498975 0.0 0.0 0.0 0.0 0.0 0.0
 0.0 0.0 0.0 0.0 0.0 0.0 -0.19021364414392916 -0.9460148465498975
 0.0 0.0 0.0 0.0 -0.19021364414392916 -0.9460148465498975 0.0 0.0
9.655175 0.0 0.0 -0.2296480301158675 -0.9371309862884715 0.0 0.0 0.0 0.0
 -0.2296480301158675 -0.9371309862884715 0.0 0.0 0.0 0.0 0.0 0.0
 0.0 0.0 0.0 0.0 0.0 0.0 -0.2296480301158675 -0.9371309862884715
 0.0 0.0 0.0 0.0 -0.2296480301158675 -0.9371309862884715 0.0 0.0
9.70515 0.0 0.0 -0.268672169957 -0.9266044621134509 0.0 0.0 0.0 0.0
 -0.268672169957 -0.9266044621134509 0.0 0.0 0.0 0.0 0.0 0.0
 0.0 0.0 0.0 0.0 0.0 0.0 -0.268672169957 -0.9266044621134509
 0.0 0.0 0.0 0.0 -0.268672169957 -0.9266044621134509 0.0 0.0
9.755125 0.0 0.0 -0.30721768511656383 -0.9144540411245748 0.0 0.0 0.0 0.0
 -0.30721768511656383 -0.9144540411245748 0.0 0.0 0.0 0.0 0.0 0.0
 0.0 0.0 0.0 0.0 0.0 0.0 -0.30721768511656383 -0.9144540411245748
 0.0 0.0 0.0 0.0 -0.30721768511656383 -0.9144540411245748 0.0 0.0
9.8051 0.0 0.0 -0.3452170487466915 -0.9007013348413389 0.0 0.0 0.0 0.0
 -0.3452170487466915 -0.9007013348413389 0.0 0.0 0.0 0.0 0.0 0.0
 0.0 0.0 0.0 0.0 0.0 0.0 -0.3452170487466915 -0.9007013348413389
 0.0 0.0 0.0 0.0 -0.3452170487466915 -0.9007013348413389 0.0 0.0
9.855075 0.0 0.0 -0.3826037039462769 -0.8853707608134881 0.0 0.0 0.0 0.0
 -0.3826037039462769 -0.8853707608134881 0.0 0.0 0.0 0.0 0.0 0.0
 0.0 0.0 0.0 0.0 0.0 0.0 -0.3826037039462769 -0.8853707608134881
 0.0 0.0 0.0 0.0 -0.3826037039462769 -0.8853707608134881 0.0 0.0
9.90505 0.0 0.0 -0.41931218028466466 -0.8684894993192074 0.0 0.0 0.0 0.0
 -0.41931218028466466 -0.8684894993192074 0.0 0.0 0.0 0.0 0.0 0.0
 0.0 0.0 0.0 0.0 0.0 0.0 -0.41931218028466466 -0.8684894993192074
 0.0 0.0 0.0 0.0 -0.41931218028466466 -0.8684894993192074 0.0 0.0
9.955025 0.0 0.0 -0.45527820840121186 -0.8500874452276919 0.0 0.0 0.0 0.0
 -0.45527820840121186 -0.8500874452276919 0.0 0.0 0.0 0.0 0.0 0.0
 0.0 0.0 0.0 0.0 0.0 0.0 -0.45527820840121186 -0.8500874452276919
 0.0 0.0 0.0 0.0 -0.45527820840121186 -0.8500874452276919 0.0 0.0
10.005 0.0 0.0 -0.49043883248017434 -0.8301971551112471 0.0 0.0 0.0 0.0
 -0.49043883248017434 -0.8301971551112471 0.0 0.0 0.0 0.0 0.0 0.0
 0.0 0.0 0.0 0.0 0.0 0.0 -0.49043883248017434 -0.8301971551112471
 0.0 0.0 0.0 0.0 -0.49043883248017434 -0.8301971551112471 0.0 0.0
10.054975 0.0 0.0 -0.5247325204041342 -0.8088537897003715 0.0 0.0 0.0 0.0
 -0.5247325204041342 -0.8088537897003715 0.0 0.0 0.0 0.0 0.0 0.0
 0.0 0.0 0.0 0.0 0.0 0.0 -0.5247325204041342 -0.8088537897003715
 0.0 0.0 0.0 0.0 -0.5247325204041342 -0.8088537897003715 0.0 0.0
10.10495 0.0 0.0 -0.558099271393246 -0.7860950517834442 0.0 0.0 0.0 0.0
 -0.558099271393246 -0.7860950517834442 0.0 0.0 0.0 0.0 0.0 0.0
 0.0 0.0 0.0 0.0 0.0 0.0 -0.558099271393246 -0.7860950517834442
 0.0 0.0 0.0 0.0 -0.558099271393246 -0.7860950517834442 0.0 0.0
10.154925 0.0 0.0 -0.5904807209420906 -0.7619611196605631 0.0 0.0 0.0 0.0
 -0.5904807209420906 -0.7619611196605631 0.0 0.0 0.0 0.0 0.0 0.0
 0.0 0.0 0.0 0.0 0.0 0.0 -0.5904807209420906 -0.7619611196605631
 0.0 0.0 0.0 0.0 -0.5904807209420906 -0.7619611196605631 0.0 0.0
10.2049 0.0 0.0 -0.6218202428706019 -0.7364945762689078 0.0 0.0 0.0 0.0
 -0.6218202428706019 -0.7364945762689078 0.0 0.0 0.0 0.0 0.0 0.0
 0.0 0.0 0.0 0.0 0.0 0.0 -0.6218202428706019 -0.7364945762689078
 0.0 0.0 0.0 0.0 -0.6218202428706019 -0.7364945762689078 0.0 0.0
10.254875 0.0 0.0 -0.6520630483106686 -0.7097403341045372 0.0 0.0 0.0 0.0
 -0.6520630483106686 -0.7097403341045372 0.0 0.0 0.0 0.0 0.0 0.0
 0.0 0.0 0.0 0.0 0.0 0.0 -0.6520630483106686 -0.7097403341045372
 0.0 0.0 0.0 0.0 -0.6520630483106686 -0.7097403341045372 0.0 0.0
10.30485 0.0 0.0 -0.6811562814554163 -0.6817455560728762 0.0 0.0 0.0 0.0
 -0.6811562814554163 -0.6817455560728762 0.0 0.0 0.0 0.0 0.0 0.0
 0.0 0.0 0.0 0.0 0.0 0.0 -0.6811562814554163 -0.6817455560728762
 0.0 0.0 0.0 0.0 -0.6811562814554163 -0.6817455560728762 0.0 0.0
10.354825 0.0 0.0 -0.7090491119038429 -0.6525595724072824 0.0 0.0 0.0 0.0
 -0.7090491119038429 -0.6525595724072824 0.0 0.0 0.0 0.0 0.0 0.0
 0.0 0.0 0.0 0.0 0.0 0.0 -0.7090491119038429 -0.6525595724072824
 0.0 0.0 0.0 0.0 -0.7090491119038429 -0.6525595724072824 0.0 0.0
10.4048 0.0 0.0 -0.7356928234394946 -0.6222337938019359 0.0 0.0 0.0 0.0
 -0.7356928234394946 -0.6222337938019359 0.0 0.0 0.0 0.0 0.0 0.0
 0.0 0.0 0.0 0.0 0.0 0.0 -0.7356928234394946 -0.6222337938019359
 0.0 0.0 0.0 0.0 -0.7356928234394946 -0.6222337938019359 0.0 0.0
10.454775 0.0 0.0 -0.7610408990881402 -0.5908216209119176 0.0 0.0 0.0 0.0
 -0.7610408990881402 -0.5908216209119176 0.0 0.0 0.0 0.0 0.0 0.0
 0.0 0.0 0.0 0.0 0.0 0.0 -0.7610408990881402 -0.5908216209119176
 0.0 0.0 0.0 0.0 -0.7610408990881402 -0.5908216209119176 0.0 0.0
10.50475 0.0 0.0 -0.7850491023059425 -0.5583783503796782 0.0 0.0 0.0 0.0
 -0.7850491023059425 -0.5583783503796782 0.0 0.0 0.0 0.0 0.0 0.0
 0.0 0.0 0.0 0.0 0.0 0.0 -0.7850491023059425 -0.5583783503796782
 0.0 0.0 0.0 0.0 -0.7850491023059425 -0.5583783503796782 0.0 0.0
10.554725 0.0 0.0 -0.8076755541564333 -0.5249610775531697 0.0 0.0 0.0 0.0
 -0.8076755541564333 -0.5249610775531697 0.0 0.0 0.0 0.0 0.0 0.0
 0.0 0.0 0.0 0.0 0.0 0.0 -0.8076755541564333 -0.5249610775531697
 0.0 0.0 0.0 0.0 -0.8076755541564333 -0.5249610775531697 0.0 0.0
10.6047 0.0 0.0 -0.8288808063416473 -0.49062859606667975 0.0 0.0 0.0 0.0
 -0.8288808063416473 -0.49062859606667975 0.0 0.0 0.0 0.0 0.0 0.0
 0.0 0.0 0.0 0.0 0.0 0.0 -0.8288808063416473 -0.49062859606667975
 0.0 0.0 0.0 0.0 -0.8288808063416473 -0.49062859606667975 0.0 0.0
10.654675 0.0 0.0 -0.8486279099600651 -0.4554412944608807 0.0 0.0 0.0 0.0
 -0.8486279099600651 -0.4554412944608807 0.0 0.0 0.0 0.0 0.0 0.0
 0.0 0.0 0.0 0.0 0.0 0.0 -0.8486279099600651 -0.4554412944608807
 0.0 0.0 0.0 0.0 -0.8486279099600651 -0.4554412944608807 0.0 0.0
10.70465 0.0 0.0 -0.8668824798715012 -0.41946105002378564 0.0 0.0 0.0 0.0
 -0.8668824798715012 -0.41946105002378564 0.0 0.0 0.0 0.0 0.0 0.0
 0.0 0.0 0.0 0.0 0.0 0.0 -0.8668824798715012 -0.41946105002378564
 0.0 0.0 0.0 0.0 -0.8668824798715012 -0.41946105002378564 0.0 0.0
10.754625 0.0 0.0 -0.8836127545568288 -0.3827511200391096 0.0 0.0 0.0 0.0
 -0.8836127545568288 -0.3827511200391096 0.0 0.0 0.0 0.0 0.0 0.0
 0.0 0.0 0.0 0.0 0.0 0.0 -0.8836127545568288 -0.3827511200391096
 0.0 0.0 0.0 0.0 -0.8836127545568288 -0.3827511200391096 0.0 0.0
10.8046 0.0 0.0 -0.8987896513683061 -0.34537603063308997 0.0 0.0 0.0 0.0
 -0.8987896513683061 -0.34537603063308997 0.0 0.0 0.0 0.0 0.0 0.0
 0.0 0.0 0.0 0.0 0.0 0.0 -0.8987896513683061 -0.34537603063308997
 0.0 0.0 0.0 0.0 -0.8987896513683061 -0.34537603063308997 0.0 0.0
10.854575 0.0 0.0 -0.9123868170743902 -0.3074014634149765 0.0 0.0 0.0 0.0
 -0.9123868170743902 -0.3074014634149765 0.0 0.0 0.0 0.0 0.0 0.0
 0.0 0.0 0.0 0.0 0.0 0.0 -0.9123868170743902 -0.3074014634149765
 0.0 0.0 0.0 0.0 -0.9123868170743902 -0.3074014634149765 0.0 0.0
10.90455 0.0 0.0 -0.924380673611175 -0.2688941401102466 0.0 0.0 0.0 0.0
 -0.924380673611175 -0.2688941401102466 0.0 0.0 0.0 0.0 0.0 0.0
 0.0 0.0 0.0 0.0 0.0 0.0 -0.924380673611175 -0.2688941401102466
 0.0 0.0 0.0 0.0 -0.924380673611175 -0.2688941401102466 0.0 0.0
10.954525 0.0 0.0 -0.9347504589610065 -0.22992170538908796 0.0 0.0 0.0 0.0
 -0.9347504589610065 -0.22992170538908796 0.0 0.0 0.0 0.0 0.0 0.0
 0.0 0.0 0.0 0.0 0.0 0.0 -0.9347504589610065 -0.22992170538908796
 0.0 0.0 0.0 0.0 -0.9347504589610065 -0.22992170538908796 0.0 0.0
11.0045 0.0 0.0 -0.9434782630873838 -0.19055260809582547 0.0 0.0 0.0 0.0
 -0.9434782630873838 -0.19055260809582547 0.0 0.0 0.0 0.0 0.0 0.0
 0.0 0.0 0.0 0.0 0.0 0.0 -0.9434782630873838 -0.19055260809582547
 0.0 0.0 0.0 0.0 -0.9434782630873838 -0.19055260809582547 0.0 0.0
11.054475 0.0 0.0 -0.9505490588639247 -0.15085598108773798 0.0 0.0 0.0 0.0
 -0.9505490588639247 -0.15085598108773798 0.0 0.0 0.0 0.0 0.0 0.0
 0.0 0.0 0.0 0.0 0.0 0.0 -0.9505490588639247 -0.15085598108773798
 0.0 0.0 0.0 0.0 -0.9505490588639247 -0.15085598108773798 0.0 0.0
11.10445 0.0 0.0 -0.955950727943963 -0.11090151989412016 0.0 0.0 0.0 0.0
 -0.955950727943963 -0.11090151989412016 0.0 0.0 0.0 0.0 0.0 0.0
 0.0 0.0 0.0 0.0 0.0 0.0 -0.955950727943963 -0.11090151989412016
 0.0 0.0 0.0 0.0 -0.955950727943963 -0.11090151989412016 0.0 0.0
11.154425 0.0 0.0 -0.9596740815262181 -0.07075936040847913 0.0 0.0 0.0 0.0
 -0.9596740815262181 -0.07075936040847913 0.0 0.0 0.0 0.0 0.0 0.0
 0.0 0.0 0.0 0.0 0.0 0.0 -0.9596740815262181 -0.07075936040847913
 0.0 0.0 0.0 0.0 -0.9596740815262181 -0.07075936040847913 0.0 0.0
11.2044 0.0 0.0 -0.9617128759809332 -0.030499955828409895 0.0 0.0 0.0 0.0
 -0.9617128759809332 -0.030499955828409895 0.0 0.0 0.0 0.0 0.0 0.0
 0.0 0.0 0.0 0.0 0.0 0.0 -0.9617128759809332 -0.030499955828409895
 0.0 0.0 0.0 0.0 -0.9617128759809332 -0.030499955828409895 0.0 0.0
11.254375 0.0 0.0 -0.9620638233098815 0.009806046940987547 0.0 0.0 0.0 0.0
 -0.9620638233098815 0.009806046940987547 0.0 0.0 0.0 0.0 0.0 0.0
 0.0 0.0 0.0 0.0 0.0 0.0 -0.9620638233098815 0.009806046940987547
 0.0 0.0 0.0 0.0 -0.9620638233098815 0.009806046940987547 0.0 0.0
11.30435 0.0 0.0 -0.9607265964227178 0.0500879312034351 0.0 0.0 0.0 0.0
 -0.9607265964227178 0.0500879312034351 0.0 0.0 0.0 0.0 0.0 0.0
 0.0 0.0 0.0 0.0 0.0 0.0 -0.9607265964227178 0.0500879312034351
 0.0 0.0 0.0 0.0 -0.9607265964227178 0.0500879312034351 0.0 0.0
11.354325 0.0 0.0 -0.9577038292212234 0.09027503449024567 0.0 0.0 0.0 0.0
 -0.9577038292212234 0.09027503449024567 0.0 0.0 0.0 0.0 0.0 0.0
 0.0 0.0 0.0 0.0 0.0 0.0 -0.9577038292212234 0.09027503449024567
 0.0 0.0 0.0 0.0 -0.9577038292212234 0.09027503449024567 0.0 0.0
11.4043 0.0 0.0 -0.9530011114921016 0.1302968724641341 0.0 0.0 0.0 0.0
 -0.9530011114921016 0.1302968724641341 0.0 0.0 0.0 0.0 0.0 0.0
 0.0 0.0 0.0 0.0 0.0 0.0 -0.9530011114921016 0.1302968724641341
 0.0 0.0 0.0 0.0 -0.9530011114921016 0.1302968724641341 0.0 0.0
11.454275 0.0 0.0 -0.9466269786180852 0.17008326249084396 0.0 0.0 0.0 0.0
 -0.9466269786180852 0.17008326249084396 0.0 0.0 0.0 0.0 0.0 0.0
 0.0 0.0 0.0 0.0 0.0 0.0 -0.9466269786180852 0.17008326249084396
 0.0 0.0 0.0 0.0 -0.9466269786180852 0.17008326249084396 0.0 0.0
11.50425 0.0 0.0 -0.9385928961261865 0.2095644466620758 0.0 0.0 0.0 0.0
 -0.9385928961261865 0.2095644466620758 0.0 0.0 0.0 0.0 0.0 0.0
 0.0 0.0 0.0 0.0 0.0 0.0 -0.9385928961261865 0.2095644466620758
 0.0 0.0 0.0 0.0 -0.9385928961261865 0.2095644466620758 0.0 0.0
11.554225 0.0 0.0 -0.9289132391009817 0.24867121405407747 0.0 0.0 0.0 0.0
 -0.9289132391009817 0.24867121405407747 0.0 0.0 0.0 0.0 0.0 0.0
 0.0 0.0 0.0 0.0 0.0 0.0 -0.9289132391009817 0.24867121405407747
 0.0 0.0 0.0 0.0 -0.9289132391009817 0.24867121405407747 0.0 0.0
11.6042 0.0 0.0 -0.9176052664998054 0.2873350220077224 0.0 0.0 0.0 0.0
 -0.9176052664998054 0.2873350220077224 0.0 0.0 0.0 0.0 0.0 0.0
 0.0 0.0 0.0 0.0 0.0 0.0 -0.9176052664998054 0.2873350220077224
 0.0 0.0 0.0 0.0 -0.9176052664998054 0.2873350220077224 0.0 0.0
11.654175 0.0 0.0 -0.9046890904156694 0.3254881162176122 0.0 0.0 0.0 0.0
 -0.9046890904156694 0.3254881162176122 0.0 0.0 0.0 0.0 0.0 0.0
 0.0 0.0 0.0 0.0 0.0 0.0 -0.9046890904156694 0.3254881162176122
 0.0 0.0 0.0 0.0 -0.9046890904156694 0.3254881162176122 0.0 0.0
11.70415 0.0 0.0 -0.8901876403425683 0.36306364941983943 0.0 0.0 0.0 0.0
 -0.8901876403425683 0.36306364941983943 0.0 0.0 0.0 0.0 0.0 0.0
 0.0 0.0 0.0 0.0 0.0 0.0 -0.8901876403425683 0.36306364941983943
 0.0 0.0 0.0 0.0 -0.8901876403425683 0.36306364941983943 0.0 0.0
11.754125 0.0 0.0 -0.874126622506582 0.39999579847058736 0.0 0.0 0.0 0.0
 -0.874126622506582 0.39999579847058736 0.0 0.0 0.0 0.0 0.0 0.0
 0.0 0.0 0.0 0.0 0.0 0.0 -0.874126622506582 0.39999579847058736
 0.0 0.0 0.0 0.0 -0.874126622506582 0.39999579847058736 0.0 0.0
11.8041 0.0 0.0 -0.8565344743348308 0.4362198796105399 0.0 0.0 0.0 0.0
 -0.8565344743348308 0.4362198796105399 0.0 0.0 0.0 0.0 0.0 0.0
 0.0 0.0 0.0 0.0 0.0 0.0 -0.8565344743348308 0.4362198796105399
 0.0 0.0 0.0 0.0 -0.8565344743348308 0.4362198796105399 0.0 0.0
11.854075 0.0 0.0 -0.837442314142846 0.4716724617133185 0.0 0.0 0.0 0.0
 -0.837442314142846 0.4716724617133185 0.0 0.0 0.0 0.0 0.0 0.0
 0.0 0.0 0.0 0.0 0.0 0.0 -0.837442314142846 0.4716724617133185
 0.0 0.0 0.0 0.0 -0.837442314142846 0.4716724617133185 0.0 0.0
11.90405 0.0 0.0 -0.816883886129294 0.5062914773197149 0.0 0.0 0.0 0.0
 -0.816883886129294 0.5062914773197149 0.0 0.0 0.0 0.0 0.0 0.0
 0.0 0.0 0.0 0.0 0.0 0.0 -0.816883886129294 0.5062914773197149
 0.0 0.0 0.0 0.0 -0.816883886129294 0.5062914773197149 0.0 0.0
11.954025 0.0 0.0 -0.7948955007751987 0.5400163312634007 0.0 0.0 0.0 0.0
 -0.7948955007751987 0.5400163312634007 0.0 0.0 0.0 0.0 0.0 0.0
 0.0 0.0 0.0 0.0 0.0 0.0 -0.7948955007751987 0.5400163312634007
 0.0 0.0 0.0 0.0 -0.7948955007751987 0.5400163312634007 0.0 0.0
12.004 0.0 0.0 -0.7715159707528527 0.5727880066980456 0.0 0.0 0.0 0.0
 -0.7715159707528527 0.5727880066980456 0.0 0.0 0.0 0.0 0.0 0.0
 0.0 0.0 0.0 0.0 0.0 0.0 -0.7715159707528527 0.5727880066980456
 0.0 0.0 0.0 0.0 -0.7715159707528527 0.5727880066980456 0.0 0.0
12.053975 0.0 0.0 -0.7467865424574623 0.6045491683403595 0.0 0.0 0.0 0.0
 -0.7467865424574623 0.6045491683403595 0.0 0.0 0.0 0.0 0.0 0.0
 0.0 0.0 0.0 0.0 0.0 0.0 -0.7467865424574623 0.6045491683403595
 0.0 0.0 0.0 0.0 -0.7467865424574623 0.6045491683403595 0.0 0.0
12.10395 0.0 0.0 -0.7207508232822234 0.6352442627484846 0.0 0.0 0.0 0.0
 -0.7207508232822234 0.6352442627484846 0.0 0.0 0.0 0.0 0.0 0.0
 0.0 0.0 0.0 0.0 0.0 0.0 -0.7207508232822234 0.6352442627484846
 0.0 0.0 0.0 0.0 -0.7207508232822234 0.6352442627484846 0.0 0.0
12.153925 0.0 0.0 -0.6934547047649856 0.6648196154603694 0.0 0.0 0.0 0.0
 -0.6934547047649856 0.6648196154603694 0.0 0.0 0.0 0.0 0.0 0.0
 0.0 0.0 0.0 0.0 0.0 0.0 -0.6934547047649856 0.6648196154603694
 0.0 0.0 0.0 0.0 -0.6934547047649856 0.6648196154603694 0.0 0.0
12.2039 0.0 0.0 -0.66494628174185 0.6932235248223213 0.0 0.0 0.0 0.0
 -0.66494628174185 0.6932235248223213 0.0 0.0 0.0 0.0 0.0 0.0
 0.0 0.0 0.0 0.0 0.0 0.0 -0.66494628174185 0.6932235248223213
 0.0 0.0 0.0 0.0 -0.66494628174185 0.6932235248223213 0.0 0.0
12.253875 0.0 0.0 -0.6352757676500591 0.7204063523437254 0.0 0.0 0.0 0.0
 -0.6352757676500591 0.7204063523437254 0.0 0.0 0.0 0.0 0.0 0.0
 0.0 0.0 0.0 0.0 0.0 0.0 -0.6352757676500591 0.7204063523437254
 0.0 0.0 0.0 0.0 -0.6352757676500591 0.7204063523437254 0.0 0.0
12.30385 0.0 0.0 -0.6044954061292451 0.7463206094200484 0.0 0.0 0.0 0.0
 -0.6044954061292451 0.7463206094200484 0.0 0.0 0.0 0.0 0.0 0.0
 0.0 0.0 0.0 0.0 0.0 0.0 -0.6044954061292451 0.7463206094200484
 0.0 0.0 0.0 0.0 -0.6044954061292451 0.7463206094200484 0.0 0.0
12.353825 0.0 0.0 -0.5726593790765717 0.7709210402726424 0.0 0.0 0.0 0.0
 -0.5726593790765717 0.7709210402726424 0.0 0.0 0.0 0.0 0.0 0.0
 0.0 0.0 0.0 0.0 0.0 0.0 -0.5726593790765717 0.7709210402726424
 0.0 0.0 0.0 0.0 -0.5726593790765717 0.7709210402726424 0.0 0.0
12.4038 0.0 0.0 -0.5398237113175194 0.794164700960491 0.0 0.0 0.0 0.0
 -0.5398237113175194 0.794164700960491 0.0 0.0 0.0 0.0 0.0 0.0
 0.0 0.0 0.0 0.0 0.0 0.0 -0.5398237113175194 0.794164700960491
 0.0 0.0 0.0 0.0 -0.5398237113175194 0.794164700960491 0.0 0.0
12.453775 0.0 0.0 -0.5060461720599412 0.8160110343259799 0.0 0.0 0.0 0.0
 -0.5060461720599412 0.8160110343259799 0.0 0.0 0.0 0.0 0.0 0.0
 0.0 0.0 0.0 0.0 0.0 0.0 -0.5060461720599412 0.8160110343259799
 0.0 0.0 0.0 0.0 -0.5060461720599412 0.8160110343259799 0.0 0.0
12.50375 0.0 0.0 -0.47138617330464466 0.8364219407439063 0.0 0.0 0.0 0.0
 -0.47138617330464466 0.8364219407439063 0.0 0.0 0.0 0.0 0.0 0.0
 0.0 0.0 0.0 0.0 0.0 0.0 -0.47138617330464466 0.8364219407439063
 0.0 0.0 0.0 0.0 -0.47138617330464466 0.8364219407439063 0.0 0.0
12.553725 0.0 0.0 -0.4359046653910803 0.8553618445503092 0.0 0.0 0.0 0.0
 -0.4359046653910803 0.8553618445503092 0.0 0.0 0.0 0.0 0.0 0.0
 0.0 0.0 0.0 0.0 0.0 0.0 -0.4359046653910803 0.8553618445503092
 0.0 0.0 0.0 0.0 -0.4359046653910803 0.8553618445503092 0.0 0.0
12.6037 0.0 0.0 -0.3996640298617019 0.8727977560353006 0.0 0.0 0.0 0.0
 -0.3996640298617019 0.8727977560353006 0.0 0.0 0.0 0.0 0.0 0.0
 0.0 0.0 0.0 0.0 0.0 0.0 -0.3996640298617019 0.8727977560353006
 0.0 0.0 0.0 0.0 -0.3996640298617019 0.8727977560353006 0.0 0.0
12.653675 0.0 0.0 -0.3627279698332162 0.8886993288918903 0.0 0.0 0.0 0.0
 -0.3627279698332162 0.8886993288918903 0.0 0.0 0.0 0.0 0.0 0.0
 0.0 0.0 0.0 0.0 0.0 0.0 -0.3627279698332162 0.8886993288918903
 0.0 0.0 0.0 0.0 -0.3627279698332162 0.8886993288918903 0.0 0.0
12.70365 0.0 0.0 -0.32516139806732164 0.9030389130207441 0.0 0.0 0.0 0.0
 -0.32516139806732164 0.9030389130207441 0.0 0.0 0.0 0.0 0.0 0.0
 0.0 0.0 0.0 0.0 0.0 0.0 -0.32516139806732164 0.9030389130207441
 0.0 0.0 0.0 0.0 -0.32516139806732164 0.9030389130207441 0.0 0.0
12.753625 0.0 0.0 -0.28703032293752473 0.9157916025989926 0.0 0.0 0.0 0.0
 -0.28703032293752473 0.9157916025989926 0.0 0.0 0.0 0.0 0.0 0.0
 0.0 0.0 0.0 0.0 0.0 0.0 -0.28703032293752473 0.9157916025989926
 0.0 0.0 0.0 0.0 -0.28703032293752473 0.9157916025989926 0.0 0.0
12.8036 0.0 0.0 -0.24840173249224864 0.9269352793295309 0.0 0.0 0.0 0.0
 -0.24840173249224864 0.9269352793295309 0.0 0.0 0.0 0.0 0.0 0.0
 0.0 0.0 0.0 0.0 0.0 0.0 -0.24840173249224864 0.9269352793295309
 0.0 0.0 0.0 0.0 -0.24840173249224864 0.9269352793295309 0.0 0.0
12.853575 0.0 0.0 -0.2093434768178437 0.9364506507956756 0.0 0.0 0.0 0.0
 -0.2093434768178437 0.9364506507956756 0.0 0.0 0.0 0.0 0.0 0.0
 0.0 0.0 0.0 0.0 0.0 0.0 -0.2093434768178437 0.9364506507956756
 0.0 0.0 0.0 0.0 -0.2093434768178437 0.9364506507956756 0.0 0.0
12.90355 0.0 0.0 -0.169924148907952 0.9443212838546847 0.0 0.0 0.0 0.0
 -0.169924148907952 0.9443212838546847 0.0 0.0 0.0 0.0 0.0 0.0
 0.0 0.0 0.0 0.0 0.0 0.0 -0.169924148907952 0.9443212838546847
 0.0 0.0 0.0 0.0 -0.169924148907952 0.9443212838546847 0.0 0.0
12.953525 0.0 0.0 -0.13021296424834297 0.9505336330123143 0.0 0.0 0.0 0.0
 -0.13021296424834297 0.9505336330123143 0.0 0.0 0.0 0.0 0.0 0.0
 0.0 0.0 0.0 0.0 0.0 0.0 -0.13021296424834297 0.9505336330123143
 0.0 0.0 0.0 0.0 -0.13021296424834297 0.9505336330123143 0.0 0.0
13.0035 0.0 0.0 -0.09027963932855161 0.9550770637294104 0.0 0.0 0.0 0.0
 -0.09027963932855161 0.9550770637294104 0.0 0.0 0.0 0.0 0.0 0.0
 0.0 0.0 0.0 0.0 0.0 0.0 -0.09027963932855161 0.9550770637294104
 0.0 0.0 0.0 0.0 -0.09027963932855161 0.9550770637294104 0.0 0.0
13.053475 0.0 0.0 -0.05019426929345337 0.9579438706204264 0.0 0.0 0.0 0.0
 -0.05019426929345337 0.9579438706204264 0.0 0.0 0.0 0.0 0.0 0.0
 0.0 0.0 0.0 0.0 0.0 0.0 -0.05019426929345337 0.9579438706204264
 0.0 0.0 0.0 0.0 -0.05019426929345337 0.9579438706204264 0.0 0.0
13.10345 0.0 0.0 -0.01002720494944607 0.9591292905127102 0.0 0.0 0.0 0.0
 -0.01002720494944607 0.9591292905127102 0.0 0.0 0.0 0.0 0.0 0.0
 0.0 0.0 0.0 0.0 0.0 0.0 -0.01002720494944607 0.9591292905127102
 0.0 0.0 0.0 0.0 -0.01002720494944607 0.9591292905127102 0.0 0.0
13.153425 0.0 0.0 0.030151070659026096 0.9586315103444273 0.0 0.0 0.0 0.0
 0.030151070659026096 0.9586315103444273 0.0 0.0 0.0 0.0 0.0 0.0
 0.0 0.0 0.0 0.0 0.0 0.0 0.030151070659026096 0.9586315103444273
 0.0 0.0 0.0 0.0 0.030151070659026096 0.9586315103444273 0.0 0.0
13.2034 0.0 0.0 0.07027006588613563 0.9564516698880294 0.0 0.0 0.0 0.0
 0.07027006588613563 0.9564516698880294 0.0 0.0 0.0 0.0 0.0 0.0
 0.0 0.0 0.0 0.0 0.0 0.0 0.07027006588613563 0.9564516698880294
 0.0 0.0 0.0 0.0 0.07027006588613563 0.9564516698880294 0.0 0.0
13.253375 0.0 0.0 0.11025940411772181 0.9525938592952613 0.0 0.0 0.0 0.0
 0.11025940411772181 0.9525938592952613 0.0 0.0 0.0 0.0 0.0 0.0
 0.0 0.0 0.0 0.0 0.0 0.0 0.11025940411772181 0.9525938592952613
 0.0 0.0 0.0 0.0 0.11025940411772181 0.9525938592952613 0.0 0.0
13.30335 0.0 0.0 0.1500489471839307 0.9470651114687694 0.0 0.0 0.0 0.0
 0.1500489471839307 0.9470651114687694 0.0 0.0 0.0 0.0 0.0 0.0
 0.0 0.0 0.0 0.0 0.0 0.0 0.1500489471839307 0.9470651114687694
 0.0 0.0 0.0 0.0 0.1500489471839307 0.9470651114687694 0.0 0.0
13.353325 0.0 0.0 0.18956891833511377 0.9398753892744494 0.0 0.0 0.0 0.0
 0.18956891833511377 0.9398753892744494 0.0 0.0 0.0 0.0 0.0 0.0
 0.0 0.0 0.0 0.0 0.0 0.0 0.18956891833511377 0.9398753892744494
 0.0 0.0 0.0 0.0 0.18956891833511377 0.9398753892744494 0.0 0.0
13.4033 0.0 0.0 0.22875002456542537 0.9310375676177124 0.0 0.0 0.0 0.0
 0.22875002456542537 0.9310375676177124 0.0 0.0 0.0 0.0 0.0 0.0
 0.0 0.0 0.0 0.0 0.0 0.0 0.22875002456542537 0.9310375676177124
 0.0 0.0 0.0 0.0 0.22875002456542537 0.9310375676177124 0.0 0.0
13.453275 0.0 0.0 0.2675235780697094 0.9205674104158487 0.0 0.0 0.0 0.0
 0.2675235780697094 0.9205674104158487 0.0 0.0 0.0 0.0 0.0 0.0
 0.0 0.0 0.0 0.0 0.0 0.0 0.2675235780697094 0.9205674104158487
 0.0 0.0 0.0 0.0 0.2675235780697094 0.9205674104158487 0.0 0.0
13.50325 0.0 0.0 0.30582161662087365 0.9084835425076145 0.0 0.0 0.0 0.0
 0.30582161662087365 0.9084835425076145 0.0 0.0 0.0 0.0 0.0 0.0
 0.0 0.0 0.0 0.0 0.0 0.0 0.30582161662087365 0.9084835425076145
 0.0 0.0 0.0 0.0 0.30582161662087365 0.9084835425076145 0.0 0.0
13.553225 0.0 0.0 0.3435770226568055 0.8948074165500374 0.0 0.0 0.0 0.0
 0.3435770226568055 0.8948074165500374 0.0 0.0 0.0 0.0 0.0 0.0
 0.0 0.0 0.0 0.0 0.0 0.0 0.3435770226568055 0.8948074165500374
 0.0 0.0 0.0 0.0 0.3435770226568055 0.8948074165500374 0.0 0.0
13.6032 0.0 0.0 0.380723640868245 0.8795632749612099 0.0 0.0 0.0 0.0
 0.380723640868245 0.8795632749612099 0.0 0.0 0.0 0.0 0.0 0.0
 0.0 0.0 0.0 0.0 0.0 0.0 0.380723640868245 0.8795632749612099
 0.0 0.0 0.0 0.0 0.380723640868245 0.8795632749612099 0.0 0.0
13.653175 0.0 0.0 0.41719639408161974 0.8627781069765349 0.0 0.0 0.0 0.0
 0.41719639408161974 0.8627781069765349 0.0 0.0 0.0 0.0 0.0 0.0
 0.0 0.0 0.0 0.0 0.0 0.0 0.41719639408161974 0.8627781069765349
 0.0 0.0 0.0 0.0 0.41719639408161974 0.8627781069765349 0.0 0.0
13.70315 0.0 0.0 0.4529313972339307 0.8444816008944186 0.0 0.0 0.0 0.0
 0.4529313972339307 0.8444816008944186 0.0 0.0 0.0 0.0 0.0 0.0
 0.0 0.0 0.0 0.0 0.0 0.0 0.4529313972339307 0.8444816008944186
 0.0 0.0 0.0 0.0 0.4529313972339307 0.8444816008944186 0.0 0.0
13.753125 0.0 0.0 0.48786606924009457 0.8247060915958565 0.0 0.0 0.0 0.0
 0.48786606924009457 0.8247060915958565 0.0 0.0 0.0 0.0 0.0 0.0
 0.0 0.0 0.0 0.0 0.0 0.0 0.48786606924009457 0.8247060915958565
 0.0 0.0 0.0 0.0 0.48786606924009457 0.8247060915958565 0.0 0.0
13.8031 0.0 0.0 0.5219392425568956 0.803486503430622 0.0 0.0 0.0 0.0
 0.5219392425568956 0.803486503430622 0.0 0.0 0.0 0.0 0.0 0.0
 0.0 0.0 0.0 0.0 0.0 0.0 0.5219392425568956 0.803486503430622
 0.0 0.0 0.0 0.0 0.5219392425568956 0.803486503430622 0.0 0.0
13.853075 0.0 0.0 0.5550912702517983 0.7808602885708578 0.0 0.0 0.0 0.0
 0.5550912702517983 0.7808602885708578 0.0 0.0 0.0 0.0 0.0 0.0
 0.0 0.0 0.0 0.0 0.0 0.0 0.5550912702517983 0.7808602885708578
 0.0 0.0 0.0 0.0 0.5550912702517983 0.7808602885708578 0.0 0.0
13.90305 0.0 0.0 0.5872641303891964 0.7568673609408476 0.0 0.0 0.0 0.0
 0.5872641303891964 0.7568673609408476 0.0 0.0 0.0 0.0 0.0 0.0
 0.0 0.0 0.0 0.0 0.0 0.0 0.5872641303891964 0.7568673609408476
 0.0 0.0 0.0 0.0 0.5872641303891964 0.7568673609408476 0.0 0.0
13.953025 0.0 0.0 0.6184015275514909 0.7315500258394355 0.0 0.0 0.0 0.0
 0.6184015275514909 0.7315500258394355 0.0 0.0 0.0 0.0 0.0 0.0
 0.0 0.0 0.0 0.0 0.0 0.0 0.6184015275514909 0.7315500258394355
 0.0 0.0 0.0 0.0 0.6184015275514909 0.7315500258394355 0.0 0.0
14.003 0.0 0.0 0.64844899131737 0.7049529053791344 0.0 0.0 0.0 0.0
 0.64844899131737 0.7049529053791344 0.0 0.0 0.0 0.0 0.0 0.0
 0.0 0.0 0.0 0.0 0.0 0.0 0.64844899131737 0.7049529053791344
 0.0 0.0 0.0 0.0 0.64844899131737 0.7049529053791344 0.0 0.0
14.052975 0.0 0.0 0.6773539715250636 0.6771228598732636 0.0 0.0 0.0 0.0
 0.6773539715250636 0.6771228598732636 0.0 0.0 0.0 0.0 0.0 0.0
 0.0 0.0 0.0 0.0 0.0 0.0 0.6773539715250636 0.6771228598732636
 0.0 0.0 0.0 0.0 0.6773539715250636 0.6771228598732636 0.0 0.0
14.10295 0.0 0.0 0.7050659301539902 0.6481089053095462 0.0 0.0 0.0 0.0
 0.7050659301539902 0.6481089053095462 0.0 0.0 0.0 0.0 0.0 0.0
 0.0 0.0 0.0 0.0 0.0 0.0 0.7050659301539902 0.6481089053095462
 0.0 0.0 0.0 0.0 0.7050659301539902 0.6481089053095462 0.0 0.0
14.152925 0.0 0.0 0.7315364296641672 0.6179621270554398 0.0 0.0 0.0 0.0
 0.7315364296641672 0.6179621270554398 0.0 0.0 0.0 0.0 0.0 0.0
 0.0 0.0 0.0 0.0 0.0 0.0 0.7315364296641672 0.6179621270554398
 0.0 0.0 0.0 0.0 0.7315364296641672 0.6179621270554398 0.0 0.0
14.2029 0.0 0.0 0.756719217639002 0.5867355899470502 0.0 0.0 0.0 0.0
 0.756719217639002 0.5867355899470502 0.0 0.0 0.0 0.0 0.0 0.0
 0.0 0.0 0.0 0.0 0.0 0.0 0.756719217639002 0.5867355899470502
 0.0 0.0 0.0 0.0 0.756719217639002 0.5867355899470502 0.0 0.0
14.252875 0.0 0.0 0.7805703075835468 0.5544842449198342 0.0 0.0 0.0 0.0
 0.7805703075835468 0.5544842449198342 0.0 0.0 0.0 0.0 0.0 0.0
 0.0 0.0 0.0 0.0 0.0 0.0 0.7805703075835468 0.5544842449198342
 0.0 0.0 0.0 0.0 0.7805703075835468 0.5544842449198342 0.0 0.0
14.30285 0.0 0.0 0.8030480557371302 0.521264832345266 0.0 0.0 0.0 0.0
 0.8030480557371302 0.521264832345266 0.0 0.0 0.0 0.0 0.0 0.0
 0.0 0.0 0.0 0.0 0.0 0.0 0.8030480557371302 0.521264832345266
 0.0 0.0 0.0 0.0 0.8030480557371302 0.521264832345266 0.0 0.0
14.352825 0.0 0.0 0.824113233766201 0.48713578224348425 0.0 0.0 0.0 0.0
 0.824113233766201 0.48713578224348425 0.0 0.0 0.0 0.0 0.0 0.0
 0.0 0.0 0.0 0.0 0.0 0.0 0.824113233766201 0.48713578224348425
 0.0 0.0 0.0 0.0 0.824113233766201 0.48713578224348425 0.0 0.0
14.4028 0.0 0.0 0.8437290972105321 0.4521571115473212 0.0 0.0 0.0 0.0
 0.8437290972105321 0.4521571115473212 0.0 0.0 0.0 0.0 0.0 0.0
 0.0 0.0 0.0 0.0 0.0 0.0 0.8437290972105321 0.4521571115473212
 0.0 0.0 0.0 0.0 0.8437290972105321 0.4521571115473212 0.0 0.0
14.452775 0.0 0.0 0.8618614495633613 0.4163903185982832 0.0 0.0 0.0 0.0
 0.8618614495633613 0.4163903185982832 0.0 0.0 0.0 0.0 0.0 0.0
 0.0 0.0 0.0 0.0 0.0 0.0 0.8618614495633613 0.4163903185982832
 0.0 0.0 0.0 0.0 0.8618614495633613 0.4163903185982832 0.0 0.0
14.50275 0.0 0.0 0.8784787018737178 0.37989827505990525 0.0 0.0 0.0 0.0
 0.8784787018737178 0.37989827505990525 0.0 0.0 0.0 0.0 0.0 0.0
 0.0 0.0 0.0 0.0 0.0 0.0 0.8784787018737178 0.37989827505990525
 0.0 0.0 0.0 0.0 0.8784787018737178 0.37989827505990525 0.0 0.0
14.552725 0.0 0.0 0.8935519277670684 0.3427451154383595 0.0 0.0 0.0 0.0
 0.8935519277670684 0.3427451154383595 0.0 0.0 0.0 0.0 0.0 0.0
 0.0 0.0 0.0 0.0 0.0 0.0 0.8935519277670684 0.3427451154383595
 0.0 0.0 0.0 0.0 0.8935519277670684 0.3427451154383595 0.0 0.0
14.6027 0.0 0.0 0.9070549137884504 0.304996124404389 0.0 0.0 0.0 0.0
 0.9070549137884504 0.304996124404389 0.0 0.0 0.0 0.0 0.0 0.0
 0.0 0.0 0.0 0.0 0.0 0.0 0.9070549137884504 0.304996124404389
 0.0 0.0 0.0 0.0 0.9070549137884504 0.304996124404389 0.0 0.0
14.652675 0.0 0.0 0.9189642049804702 0.2667176221144806 0.0 0.0 0.0 0.0
 0.9189642049804702 0.2667176221144806 0.0 0.0 0.0 0.0 0.0 0.0
 0.0 0.0 0.0 0.0 0.0 0.0 0.9189642049804702 0.2667176221144806
 0.0 0.0 0.0 0.0 0.9189642049804702 0.2667176221144806 0.0 0.0
14.70265 0.0 0.0 0.9292591456169248 0.2279768477326584 0.0 0.0 0.0 0.0
 0.9292591456169248 0.2279768477326584 0.0 0.0 0.0 0.0 0.0 0.0
 0.0 0.0 0.0 0.0 0.0 0.0 0.9292591456169248 0.2279768477326584
 0.0 0.0 0.0 0.0 0.9292591456169248 0.2279768477326584 0.0 0.0
14.752625 0.0 0.0 0.9379219150213055 0.18884184135738374 0.0 0.0 0.0 0.0
 0.9379219150213055 0.18884184135738374 0.0 0.0 0.0 0.0 0.0 0.0
 0.0 0.0 0.0 0.0 0.0 0.0 0.9379219150213055 0.18884184135738374
 0.0 0.0 0.0 0.0 0.9379219150213055 0.18884184135738374 0.0 0.0
14.8026 0.0 0.0 0.9449375584080675 0.1493813245608477 0.0 0.0 0.0 0.0
 0.9449375584080675 0.1493813245608477 0.0 0.0 0.0 0.0 0.0 0.0
 0.0 0.0 0.0 0.0 0.0 0.0 0.9449375584080675 0.1493813245608477
 0.0 0.0 0.0 0.0 0.9449375584080675 0.1493813245608477 0.0 0.0
14.852575 0.0 0.0 0.950294012693277 0.10966457975037354 0.0 0.0 0.0 0.0
 0.950294012693277 0.10966457975037354 0.0 0.0 0.0 0.0 0.0 0.0
 0.0 0.0 0.0 0.0 0.0 0.0 0.950294012693277 0.10966457975037354
 0.0 0.0 0.0 0.0 0.950294012693277 0.10966457975037354 0.0 0.0
14.90255 0.0 0.0 0.953982127230108 0.06976132856354457 0.0 0.0 0.0 0.0
 0.953982127230108 0.06976132856354457 0.0 0.0 0.0 0.0 0.0 0.0
 0.0 0.0 0.0 0.0 0.0 0.0 0.953982127230108 0.06976132856354457
 0.0 0.0 0.0 0.0 0.953982127230108 0.06976132856354457 0.0 0.0
14.952525 0.0 0.0 0.9559956794335113 0.029741609510580823 0.0 0.0 0.0 0.0
 0.9559956794335113 0.029741609510580823 0.0 0.0 0.0 0.0 0.0 0.0
 0.0 0.0 0.0 0.0 0.0 0.0 0.9559956794335113 0.029741609510580823
 0.0 0.0 0.0 0.0 0.9559956794335113 0.029741609510580823 0.0 0.0
15.0025 0.0 0.0 0.9563313852674035 -0.01032434492149059 0.0 0.0 0.0 0.0
 0.9563313852674035 -0.01032434492149059 0.0 0.0 0.0 0.0 0.0 0.0
 0.0 0.0 0.0 0.0 0.0 0.0 0.9563313852674035 -0.01032434492149059
 0.0 0.0 0.0 0.0 0.9563313852674035 -0.01032434492149059 0.0 0.0
15.052475 0.0 0.0 0.9549889045766919 -0.05036623148721288 0.0 0.0 0.0 0.0
 0.9549889045766919 -0.05036623148721288 0.0 0.0 0.0 0.0 0.0 0.0
 0.0 0.0 0.0 0.0 0.0 0.0 0.9549889045766919 -0.05036623148721288
 0.0 0.0 0.0 0.0 0.9549889045766919 -0.05036623148721288 0.0 0.0
15.10245 0.0 0.0 0.9519708412555148 -0.09031379950752591 0.0 0.0 0.0 0.0
 0.9519708412555148 -0.09031379950752591 0.0 0.0 0.0 0.0 0.0 0.0
 0.0 0.0 0.0 0.0 0.0 0.0 0.9519708412555148 -0.09031379950752591
 0.0 0.0 0.0 0.0 0.9519708412555148 -0.09031379950752591 0.0 0.0
15.152425 0.0 0.0 0.9472827382521248 -0.13009697408475857 0.0 0.0 0.0 0.0
 0.9472827382521248 -0.13009697408475857 0.0 0.0 0.0 0.0 0.0 0.0
 0.0 0.0 0.0 0.0 0.0 0.0 0.9472827382521248 -0.13009697408475857
 0.0 0.0 0.0 0.0 0.9472827382521248 -0.13009697408475857 0.0 0.0
15.2024 0.0 0.0 0.9409330674198993 -0.16964597899173023 0.0 0.0 0.0 0.0
 0.9409330674198993 -0.16964597899173023 0.0 0.0 0.0 0.0 0.0 0.0
 0.0 0.0 0.0 0.0 0.0 0.0 0.9409330674198993 -0.16964597899173023
 0.0 0.0 0.0 0.0 0.9409330674198993 -0.16964597899173023 0.0 0.0
15.252375 0.0 0.0 0.9329332142329939 -0.20889145901950457 0.0 0.0 0.0 0.0
 0.9329332142329939 -0.20889145901950457 0.0 0.0 0.0 0.0 0.0 0.0
 0.0 0.0 0.0 0.0 0.0 0.0 0.9329332142329939 -0.20889145901950457
 0.0 0.0 0.0 0.0 0.9329332142329939 -0.20889145901950457 0.0 0.0
15.30235 0.0 0.0 0.9232974573941639 -0.24776460156931712 0.0 0.0 0.0 0.0
 0.9232974573941639 -0.24776460156931712 0.0 0.0 0.0 0.0 0.0 0.0
 0.0 0.0 0.0 0.0 0.0 0.0 0.9232974573941639 -0.24776460156931712
 0.0 0.0 0.0 0.0 0.9232974573941639 -0.24776460156931712 0.0 0.0
15.352325 0.0 0.0 0.9120429433712204 -0.2861972572755624 0.0 0.0 0.0 0.0
 0.9120429433712204 -0.2861972572755624 0.0 0.0 0.0 0.0 0.0 0.0
 0.0 0.0 0.0 0.0 0.0 0.0 0.9120429433712204 -0.2861972572755624
 0.0 0.0 0.0 0.0 0.9120429433712204 -0.2861972572755624 0.0 0.0
15.4023 0.0 0.0 0.8991896559074897 -0.32412205944842387 0.0 0.0 0.0 0.0
 0.8991896559074897 -0.32412205944842387 0.0 0.0 0.0 0.0 0.0 0.0
 0.0 0.0 0.0 0.0 0.0 0.0 0.8991896559074897 -0.32412205944842387
 0.0 0.0 0.0 0.0 0.8991896559074897 -0.32412205944842387 0.0 0.0
15.452275 0.0 0.0 0.8847603805604393 -0.361472542126872 0.0 0.0 0.0 0.0
 0.8847603805604393 -0.361472542126872 0.0 0.0 0.0 0.0 0.0 0.0
 0.0 0.0 0.0 0.0 0.0 0.0 0.8847603805604393 -0.361472542126872
 0.0 0.0 0.0 0.0 0.8847603805604393 -0.361472542126872 0.0 0.0
15.50225 0.0 0.0 0.8687806643313444 -0.3981832565351999 0.0 0.0 0.0 0.0
 0.8687806643313444 -0.3981832565351999 0.0 0.0 0.0 0.0 0.0 0.0
 0.0 0.0 0.0 0.0 0.0 0.0 0.8687806643313444 -0.3981832565351999
 0.0 0.0 0.0 0.0 0.8687806643313444 -0.3981832565351999 0.0 0.0
15.552225 0.0 0.0 0.8512787704574822 -0.43418988573906725 0.0 0.0 0.0 0.0
 0.8512787704574822 -0.43418988573906725 0.0 0.0 0.0 0.0 0.0 0.0
 0.0 0.0 0.0 0.0 0.0 0.0 0.8512787704574822 -0.43418988573906725
 0.0 0.0 0.0 0.0 0.8512787704574822 -0.43418988573906725 0.0 0.0
15.6022 0.0 0.0 0.8322856284467944 -0.4694293573002664 0.0 0.0 0.0 0.0
 0.8322856284467944 -0.4694293573002664 0.0 0.0 0.0 0.0 0.0 0.0
 0.0 0.0 0.0 0.0 0.0 0.0 0.8322856284467944 -0.4694293573002664
 0.0 0.0 0.0 0.0 0.8322856284467944 -0.4694293573002664 0.0 0.0
15.652175 0.0 0.0 0.8118347794433103 -0.5038399537328931 0.0 0.0 0.0 0.0
 0.8118347794433103 -0.5038399537328931 0.0 0.0 0.0 0.0 0.0 0.0
 0.0 0.0 0.0 0.0 0.0 0.0 0.8118347794433103 -0.5038399537328931
 0.0 0.0 0.0 0.0 0.8118347794433103 -0.5038399537328931 0.0 0.0
15.70215 0.0 0.0 0.7899623170197706 -0.5373614205675658 0.0 0.0 0.0 0.0
 0.7899623170197706 -0.5373614205675658 0.0 0.0 0.0 0.0 0.0 0.0
 0.0 0.0 0.0 0.0 0.0 0.0 0.7899623170197706 -0.5373614205675658
 0.0 0.0 0.0 0.0 0.7899623170197706 -0.5373614205675658 0.0 0.0
15.752125 0.0 0.0 0.7667068235019447 -0.569935071834449 0.0 0.0 0.0 0.0
 0.7667068235019447 -0.569935071834449 0.0 0.0 0.0 0.0 0.0 0.0
 0.0 0.0 0.0 0.0 0.0 0.0 0.7667068235019447 -0.569935071834449
 0.0 0.0 0.0 0.0 0.7667068235019447 -0.569935071834449 0.0 0.0
15.8021 0.0 0.0 0.742109301936883 -0.6015038927805346 0.0 0.0 0.0 0.0
 0.742109301936883 -0.6015038927805346 0.0 0.0 0.0 0.0 0.0 0.0
 0.0 0.0 0.0 0.0 0.0 0.0 0.742109301936883 -0.6015038927805346
 0.0 0.0 0.0 0.0 0.742109301936883 -0.6015038927805346 0.0 0.0
15.852075 0.0 0.0 0.7162131038250447 -0.6320126396413586 0.0 0.0 0.0 0.0
 0.7162131038250447 -0.6320126396413586 0.0 0.0 0.0 0.0 0.0 0.0
 0.0 0.0 0.0 0.0 0.0 0.0 0.7162131038250447 -0.6320126396413586
 0.0 0.0 0.0 0.0 0.7162131038250447 -0.6320126396413586 0.0 0.0
15.90205 0.0 0.0 0.6890638527436221 -0.6614079362926019 0.0 0.0 0.0 0.0
 0.6890638527436221 -0.6614079362926019 0.0 0.0 0.0 0.0 0.0 0.0
 0.0 0.0 0.0 0.0 0.0 0.0 0.6890638527436221 -0.6614079362926019
 0.0 0.0 0.0 0.0 0.6890638527436221 -0.6614079362926019 0.0 0.0
15.952025 0.0 0.0 0.660709363995538 -0.689638367612542 0.0 0.0 0.0 0.0
 0.660709363995538 -0.689638367612542 0.0 0.0 0.0 0.0 0.0 0.0
 0.0 0.0 0.0 0.0 0.0 0.0 0.660709363995538 -0.689638367612542
 0.0 0.0 0.0 0.0 0.660709363995538 -0.689638367612542 0.0 0.0
16.002 0.0 0.0 0.6311995604256015 -0.7166545693920356 0.0 0.0 0.0 0.0
 0.6311995604256015 -0.7166545693920356 0.0 0.0 0.0 0.0 0.0 0.0
 0.0 0.0 0.0 0.0 0.0 0.0 0.6311995604256015 -0.7166545693920356
 0.0 0.0 0.0 0.0 0.6311995604256015 -0.7166545693920356 0.0 0.0
16.051975 0.0 0.0 0.6005863845519739 -0.7424093146348465 0.0 0.0 0.0 0.0
 0.6005863845519739 -0.7424093146348465 0.0 0.0 0.0 0.0 0.0 0.0
 0.0 0.0 0.0 0.0 0.0 0.0 0.6005863845519739 -0.7424093146348465
 0.0 0.0 0.0 0.0 0.6005863845519739 -0.7424093146348465 0.0 0.0
16.10195 0.0 0.0 0.5689237071675428 -0.7668575960974634 0.0 0.0 0.0 0.0
 0.5689237071675428 -0.7668575960974634 0.0 0.0 0.0 0.0 0.0 0.0
 0.0 0.0 0.0 0.0 0.0 0.0 0.5689237071675428 -0.7668575960974634
 0.0 0.0 0.0 0.0 0.5689237071675428 -0.7668575960974634 0.0 0.0
16.151925 0.0 0.0 0.5362672325719825 -0.7899567049241688 0.0 0.0 0.0 0.0
 0.5362672325719825 -0.7899567049241688 0.0 0.0 0.0 0.0 0.0 0.0
 0.0 0.0 0.0 0.0 0.0 0.0 0.5362672325719825 -0.7899567049241688
 0.0 0.0 0.0 0.0 0.5362672325719825 -0.7899567049241688 0.0 0.0
16.2019 0.0 0.0 0.5026744006011512 -0.8116663052399885 0.0 0.0 0.0 0.0
 0.5026744006011512 -0.8116663052399885 0.0 0.0 0.0 0.0 0.0 0.0
 0.0 0.0 0.0 0.0 0.0 0.0 0.5026744006011512 -0.8116663052399885
 0.0 0.0 0.0 0.0 0.5026744006011512 -0.8116663052399885 0.0 0.0
16.251875 0.0 0.0 0.4682042856260835 -0.8319485045712532 0.0 0.0 0.0 0.0
 0.4682042856260835 -0.8319485045712532 0.0 0.0 0.0 0.0 0.0 0.0
 0.0 0.0 0.0 0.0 0.0 0.0 0.4682042856260835 -0.8319485045712532
 0.0 0.0 0.0 0.0 0.4682042856260835 -0.8319485045712532 0.0 0.0
16.30185 0.0 0.0 0.4329174926991087 -0.8507679199708498 0.0 0.0 0.0 0.0
 0.4329174926991087 -0.8507679199708498 0.0 0.0 0.0 0.0 0.0 0.0
 0.0 0.0 0.0 0.0 0.0 0.0 0.4329174926991087 -0.8507679199708498
 0.0 0.0 0.0 0.0 0.4329174926991087 -0.8507679199708498 0.0 0.0
16.351825 0.0 0.0 0.3968760510296466 -0.8680917397327595 0.0 0.0 0.0 0.0
 0.3968760510296466 -0.8680917397327595 0.0 0.0 0.0 0.0 0.0 0.0
 0.0 0.0 0.0 0.0 0.0 0.0 0.3968760510296466 -0.8680917397327595
 0.0 0.0 0.0 0.0 0.3968760510296466 -0.8680917397327595 0.0 0.0
16.4018 0.0 0.0 0.3601433049768125 -0.8838897805882823 0.0 0.0 0.0 0.0
 0.3601433049768125 -0.8838897805882823 0.0 0.0 0.0 0.0 0.0 0.0
 0.0 0.0 0.0 0.0 0.0 0.0 0.3601433049768125 -0.8838897805882823
 0.0 0.0 0.0 0.0 0.3601433049768125 -0.8838897805882823 0.0 0.0
16.451775 0.0 0.0 0.32278380275038837 -0.898134540284219 0.0 0.0 0.0 0.0
 0.32278380275038837 -0.898134540284219 0.0 0.0 0.0 0.0 0.0 0.0
 0.0 0.0 0.0 0.0 0.0 0.0 0.32278380275038837 -0.898134540284219
 0.0 0.0 0.0 0.0 0.32278380275038837 -0.898134540284219 0.0 0.0
16.50175 0.0 0.0 0.28486318301563757 -0.9108012454514492 0.0 0.0 0.0 0.0
 0.28486318301563757 -0.9108012454514492 0.0 0.0 0.0 0.0 0.0 0.0
 0.0 0.0 0.0 0.0 0.0 0.0 0.28486318301563757 -0.9108012454514492
 0.0 0.0 0.0 0.0 0.28486318301563757 -0.9108012454514492 0.0 0.0
16.551725 0.0 0.0 0.24644805960111674 -0.9218678946805856 0.0 0.0 0.0 0.0
 0.24644805960111674 -0.9218678946805856 0.0 0.0 0.0 0.0 0.0 0.0
 0.0 0.0 0.0 0.0 0.0 0.0 0.24644805960111674 -0.9218678946805856
 0.0 0.0 0.0 0.0 0.24644805960111674 -0.9218678946805856 0.0 0.0
16.6017 0.0 0.0 0.2076059045119461 -0.9313152967298046 0.0 0.0 0.0 0.0
 0.2076059045119461 -0.9313152967298046 0.0 0.0 0.0 0.0 0.0 0.0
 0.0 0.0 0.0 0.0 0.0 0.0 0.2076059045119461 -0.9313152967298046
 0.0 0.0 0.0 0.0 0.2076059045119461 -0.9313152967298046 0.0 0.0
16.651675 0.0 0.0 0.16840492945395044 -0.9391271037985043 0.0 0.0 0.0 0.0
 0.16840492945395044 -0.9391271037985043 0.0 0.0 0.0 0.0 0.0 0.0
 0.0 0.0 0.0 0.0 0.0 0.0 0.16840492945395044 -0.9391271037985043
 0.0 0.0 0.0 0.0 0.16840492945395044 -0.9391271037985043 0.0 0.0
16.70165 0.0 0.0 0.12891396607659633 -0.94528983980911 0.0 0.0 0.0 0.0
 0.12891396607659633 -0.94528983980911 0.0 0.0 0.0 0.0 0.0 0.0
 0.0 0.0 0.0 0.0 0.0 0.0 0.12891396607659633 -0.94528983980911
 0.0 0.0 0.0 0.0 0.12891396607659633 -0.94528983980911 0.0 0.0
16.751625 0.0 0.0 0.08920234514498758 -0.949792923648084 0.0 0.0 0.0 0.0
 0.08920234514498758 -0.949792923648084 0.0 0.0 0.0 0.0 0.0 0.0
 0.0 0.0 0.0 0.0 0.0 0.0 0.08920234514498758 -0.949792923648084
 0.0 0.0 0.0 0.0 0.08920234514498758 -0.949792923648084 0.0 0.0
16.8016 0.0 0.0 0.049339774852963786 -0.9526286873260656 0.0 0.0 0.0 0.0
 0.049339774852963786 -0.9526286873260656 0.0 0.0 0.0 0.0 0.0 0.0
 0.0 0.0 0.0 0.0 0.0 0.0 0.049339774852963786 -0.9526286873260656
 0.0 0.0 0.0 0.0 0.049339774852963786 -0.9526286873260656 0.0 0.0
16.851575 0.0 0.0 0.009396218490785348 -0.9537923890259792 0.0 0.0 0.0 0.0
 0.009396218490785348 -0.9537923890259792 0.0 0.0 0.0 0.0 0.0 0.0
 0.0 0.0 0.0 0.0 0.0 0.0 0.009396218490785348 -0.9537923890259792
 0.0 0.0 0.0 0.0 0.009396218490785348 -0.9537923890259792 0.0 0.0
16.90155 0.0 0.0 -0.030558228317916207 -0.9532822210169042 0.0 0.0 0.0 0.0
 -0.030558228317916207 -0.9532822210169042 0.0 0.0 0.0 0.0 0.0 0.0
 0.0 0.0 0.0 0.0 0.0 0.0 -0.030558228317916207 -0.9532822210169042
 0.0 0.0 0.0 0.0 -0.030558228317916207 -0.9532822210169042 0.0 0.0
16.951525 0.0 0.0 -0.07045346059457018 -0.9510993124205233 0.0 0.0 0.0 0.0
 -0.07045346059457018 -0.9510993124205233 0.0 0.0 0.0 0.0 0.0 0.0
 0.0 0.0 0.0 0.0 0.0 0.0 -0.07045346059457018 -0.9510993124205233
 0.0 0.0 0.0 0.0 -0.07045346059457018 -0.9510993124205233 0.0 0.0
17.0015 0.0 0.0 -0.11021948698380336 -0.9472477268259801 0.0 0.0 0.0 0.0
 -0.11021948698380336 -0.9472477268259801 0.0 0.0 0.0 0.0 0.0 0.0
 0.0 0.0 0.0 0.0 0.0 0.0 -0.11021948698380336 -0.9472477268259801
 0.0 0.0 0.0 0.0 -0.11021948698380336 -0.9472477268259801 0.0 0.0
17.051475 0.0 0.0 -0.14978655251554124 -0.9417344547580248 0.0 0.0 0.0 0.0
 -0.14978655251554124 -0.9417344547580248 0.0 0.0 0.0 0.0 0.0 0.0
 0.0 0.0 0.0 0.0 0.0 0.0 -0.14978655251554124 -0.9417344547580248
 0.0 0.0 0.0 0.0 -0.14978655251554124 -0.9417344547580248 0.0 0.0
17.10145 0.0 0.0 -0.18908526093585867 -0.9345694010123379 0.0 0.0 0.0 0.0
 -0.18908526093585867 -0.9345694010123379 0.0 0.0 0.0 0.0 0.0 0.0
 0.0 0.0 0.0 0.0 0.0 0.0 -0.18908526093585867 -0.9345694010123379
 0.0 0.0 0.0 0.0 -0.18908526093585867 -0.9345694010123379 0.0 0.0
17.151425 0.0 0.0 -0.22804669639205533 -0.9257653668809352 0.0 0.0 0.0 0.0
 -0.22804669639205533 -0.9257653668809352 0.0 0.0 0.0 0.0 0.0 0.0
 0.0 0.0 0.0 0.0 0.0 0.0 -0.22804669639205533 -0.9257653668809352
 0.0 0.0 0.0 0.0 -0.22804669639205533 -0.9257653668809352 0.0 0.0
17.2014 0.0 0.0 -0.26660254425863866 -0.9153380272995031 0.0 0.0 0.0 0.0
 -0.26660254425863866 -0.9153380272995031 0.0 0.0 0.0 0.0 0.0 0.0
 0.0 0.0 0.0 0.0 0.0 0.0 -0.26660254425863866 -0.9153380272995031
 0.0 0.0 0.0 0.0 -0.26660254425863866 -0.9153380272995031 0.0 0.0
17.251375 0.0 0.0 -0.30468521089241857 -0.9033059029574242 0.0 0.0 0.0 0.0
 -0.30468521089241857 -0.9033059029574242 0.0 0.0 0.0 0.0 0.0 0.0
 0.0 0.0 0.0 0.0 0.0 0.0 -0.30468521089241857 -0.9033059029574242
 0.0 0.0 0.0 0.0 -0.30468521089241857 -0.9033059029574242 0.0 0.0
17.30135 0.0 0.0 -0.342227942106824 -0.889690327420074 0.0 0.0 0.0 0.0
 -0.342227942106824 -0.889690327420074 0.0 0.0 0.0 0.0 0.0 0.0
 0.0 0.0 0.0 0.0 0.0 0.0 -0.342227942106824 -0.889690327420074
 0.0 0.0 0.0 0.0 -0.342227942106824 -0.889690327420074 0.0 0.0
17.351325 0.0 0.0 -0.3791649401578274 -0.8745154093217162 0.0 0.0 0.0 0.0
 -0.3791649401578274 -0.8745154093217162 0.0 0.0 0.0 0.0 0.0 0.0
 0.0 0.0 0.0 0.0 0.0 0.0 -0.3791649401578274 -0.8745154093217162
 0.0 0.0 0.0 0.0 -0.3791649401578274 -0.8745154093217162 0.0 0.0
17.4013 0.0 0.0 -0.41543147903649624 -0.8578079896959566 0.0 0.0 0.0 0.0
 -0.41543147903649624 -0.8578079896959566 0.0 0.0 0.0 0.0 0.0 0.0
 0.0 0.0 0.0 0.0 0.0 0.0 -0.41543147903649624 -0.8578079896959566
 0.0 0.0 0.0 0.0 -0.41543147903649624 -0.8578079896959566 0.0 0.0
17.451275 0.0 0.0 -0.450964017866198 -0.839597594519234 0.0 0.0 0.0 0.0
 -0.450964017866198 -0.839597594519234 0.0 0.0 0.0 0.0 0.0 0.0
 0.0 0.0 0.0 0.0 0.0 0.0 -0.450964017866198 -0.839597594519234
 0.0 0.0 0.0 0.0 -0.450964017866198 -0.839597594519234 0.0 0.0
17.50125 0.0 0.0 -0.4857003122058154 -0.8199163825512167 0.0 0.0 0.0 0.0
 -0.4857003122058154 -0.8199163825512167 0.0 0.0 0.0 0.0 0.0 0.0
 0.0 0.0 0.0 0.0 0.0 0.0 -0.4857003122058154 -0.8199163825512167
 0.0 0.0 0.0 0.0 -0.4857003122058154 -0.8199163825512167 0.0 0.0
17.551225 0.0 0.0 -0.5195795230640298 -0.7987990885642153 0.0 0.0 0.0 0.0
 -0.5195795230640298 -0.7987990885642153 0.0 0.0 0.0 0.0 0.0 0.0
 0.0 0.0 0.0 0.0 0.0 0.0 -0.5195795230640298 -0.7987990885642153
 0.0 0.0 0.0 0.0 -0.5195795230640298 -0.7987990885642153 0.0 0.0
17.6012 0.0 0.0 -0.5525423234338274 -0.7762829620617577 0.0 0.0 0.0 0.0
 -0.5525423234338274 -0.7762829620617577 0.0 0.0 0.0 0.0 0.0 0.0
 0.0 0.0 0.0 0.0 0.0 0.0 -0.5525423234338274 -0.7762829620617577
 0.0 0.0 0.0 0.0 -0.5525423234338274 -0.7762829620617577 0.0 0.0
17.651175 0.0 0.0 -0.584531002160636 -0.7524077015944423 0.0 0.0 0.0 0.0
 -0.584531002160636 -0.7524077015944423 0.0 0.0 0.0 0.0 0.0 0.0
 0.0 0.0 0.0 0.0 0.0 0.0 -0.584531002160636 -0.7524077015944423
 0.0 0.0 0.0 0.0 -0.584531002160636 -0.7524077015944423 0.0 0.0
17.70115 0.0 0.0 -0.6154895649623359 -0.7272153847888138 0.0 0.0 0.0 0.0
 -0.6154895649623359 -0.7272153847888138 0.0 0.0 0.0 0.0 0.0 0.0
 0.0 0.0 0.0 0.0 0.0 0.0 -0.6154895649623359 -0.7272153847888138
 0.0 0.0 0.0 0.0 -0.6154895649623359 -0.7272153847888138 0.0 0.0
17.751125 0.0 0.0 -0.6453638324242851 -0.7007503942125816 0.0 0.0 0.0 0.0
 -0.6453638324242851 -0.7007503942125816 0.0 0.0 0.0 0.0 0.0 0.0
 0.0 0.0 0.0 0.0 0.0 0.0 -0.6453638324242851 -0.7007503942125816
 0.0 0.0 0.0 0.0 -0.6453638324242851 -0.7007503942125816 0.0 0.0
17.8011 0.0 0.0 -0.674101534797943 -0.6730593392067139 0.0 0.0 0.0 0.0
 -0.674101534797943 -0.6730593392067139 0.0 0.0 0.0 0.0 0.0 0.0
 0.0 0.0 0.0 0.0 0.0 0.0 -0.674101534797943 -0.6730593392067139
 0.0 0.0 0.0 0.0 -0.674101534797943 -0.6730593392067139 0.0 0.0
17.851075 0.0 0.0 -0.7016524034371971 -0.6441909738220676 0.0 0.0 0.0 0.0
 -0.7016524034371971 -0.6441909738220676 0.0 0.0 0.0 0.0 0.0 0.0
 0.0 0.0 0.0 0.0 0.0 0.0 -0.7016524034371971 -0.6441909738220676
 0.0 0.0 0.0 0.0 -0.7016524034371971 -0.6441909738220676 0.0 0.0
17.90105 0.0 0.0 -0.7279682587124977 -0.6141961110049684 0.0 0.0 0.0 0.0
 -0.7279682587124977 -0.6141961110049684 0.0 0.0 0.0 0.0 0.0 0.0
 0.0 0.0 0.0 0.0 0.0 0.0 -0.7279682587124977 -0.6141961110049684
 0.0 0.0 0.0 0.0 -0.7279682587124977 -0.6141961110049684 0.0 0.0
17.951025 0.0 0.0 -0.7530030942490475 -0.5831275331827588 0.0 0.0 0.0 0.0
 -0.7530030942490475 -0.5831275331827588 0.0 0.0 0.0 0.0 0.0 0.0
 0.0 0.0 0.0 0.0 0.0 0.0 -0.7530030942490475 -0.5831275331827588
 0.0 0.0 0.0 0.0 -0.7530030942490475 -0.5831275331827588 0.0 0.0
18.001 0.0 0.0 -0.7767131573417876 -0.5510398994066102 0.0 0.0 0.0 0.0
 -0.7767131573417876 -0.5510398994066102 0.0 0.0 0.0 0.0 0.0 0.0
 0.0 0.0 0.0 0.0 0.0 0.0 -0.7767131573417876 -0.5510398994066102
 0.0 0.0 0.0 0.0 -0.7767131573417876 -0.5510398994066102 0.0 0.0
18.050975 0.0 0.0 -0.7990570254066485 -0.5179896492148932 0.0 0.0 0.0 0.0
 -0.7990570254066485 -0.5179896492148932 0.0 0.0 0.0 0.0 0.0 0.0
 0.0 0.0 0.0 0.0 0.0 0.0 -0.7990570254066485 -0.5179896492148932
 0.0 0.0 0.0 0.0 -0.7990570254066485 -0.5179896492148932 0.0 0.0
18.10095 0.0 0.0 -0.8199956783344832 -0.48403490338616567 0.0 0.0 0.0 0.0
 -0.8199956783344832 -0.48403490338616567 0.0 0.0 0.0 0.0 0.0 0.0
 0.0 0.0 0.0 0.0 0.0 0.0 -0.8199956783344832 -0.48403490338616567
 0.0 0.0 0.0 0.0 -0.8199956783344832 -0.48403490338616567 0.0 0.0
18.150925 0.0 0.0 -0.8394925666213184 -0.4492353617562478 0.0 0.0 0.0 0.0
 -0.8394925666213184 -0.4492353617562478 0.0 0.0 0.0 0.0 0.0 0.0
 0.0 0.0 0.0 0.0 0.0 0.0 -0.8394925666213184 -0.4492353617562478
 0.0 0.0 0.0 0.0 -0.8394925666213184 -0.4492353617562478 0.0 0.0
18.2009 0.0 0.0 -0.8575136751559781 -0.4136521982789871 0.0 0.0 0.0 0.0
 -0.8575136751559781 -0.4136521982789871 0.0 0.0 0.0 0.0 0.0 0.0
 0.0 0.0 0.0 0.0 0.0 0.0 -0.8575136751559781 -0.4136521982789871
 0.0 0.0 0.0 0.0 -0.8575136751559781 -0.4136521982789871 0.0 0.0
18.250875 0.0 0.0 -0.8740275825537681 -0.37734795351512634 0.0 0.0 0.0 0.0
 -0.8740275825537681 -0.37734795351512634 0.0 0.0 0.0 0.0 0.0 0.0
 0.0 0.0 0.0 0.0 0.0 0.0 -0.8740275825537681 -0.37734795351512634
 0.0 0.0 0.0 0.0 -0.8740275825537681 -0.37734795351512634 0.0 0.0
18.30085 0.0 0.0 -0.8890055159327278 -0.3403864247381754 0.0 0.0 0.0 0.0
 -0.8890055159327278 -0.3403864247381754 0.0 0.0 0.0 0.0 0.0 0.0
 0.0 0.0 0.0 0.0 0.0 0.0 -0.8890055159327278 -0.3403864247381754
 0.0 0.0 0.0 0.0 -0.8890055159327278 -0.3403864247381754 0.0 0.0
18.350825 0.0 0.0 -0.9024214010369723 -0.30283255385034313 0.0 0.0 0.0 0.0
 -0.9024214010369723 -0.30283255385034313 0.0 0.0 0.0 0.0 0.0 0.0
 0.0 0.0 0.0 0.0 0.0 0.0 -0.9024214010369723 -0.30283255385034313
 0.0 0.0 0.0 0.0 -0.9024214010369723 -0.30283255385034313 0.0 0.0
18.4008 0.0 0.0 -0.914251907619814 -0.2647523133053902 0.0 0.0 0.0 0.0
 -0.914251907619814 -0.2647523133053902 0.0 0.0 0.0 0.0 0.0 0.0
 0.0 0.0 0.0 0.0 0.0 0.0 -0.914251907619814 -0.2647523133053902
 0.0 0.0 0.0 0.0 -0.914251907619814 -0.2647523133053902 0.0 0.0
18.450775 0.0 0.0 -0.9244764900076679 -0.22621259023877802 0.0 0.0 0.0 0.0
 -0.9244764900076679 -0.22621259023877802 0.0 0.0 0.0 0.0 0.0 0.0
 0.0 0.0 0.0 0.0 0.0 0.0 -0.9244764900076679 -0.22621259023877802
 0.0 0.0 0.0 0.0 -0.9244764900076679 -0.22621259023877802 0.0 0.0
18.50075 0.0 0.0 -0.9330774227742372 -0.18728106900851768 0.0 0.0 0.0 0.0
 -0.9330774227742372 -0.18728106900851768 0.0 0.0 0.0 0.0 0.0 0.0
 0.0 0.0 0.0 0.0 0.0 0.0 -0.9330774227742372 -0.18728106900851768
 0.0 0.0 0.0 0.0 -0.9330774227742372 -0.18728106900851768 0.0 0.0
18.550725 0.0 0.0 -0.9400398314630187 -0.148026112353001 0.0 0.0 0.0 0.0
 -0.9400398314630187 -0.148026112353001 0.0 0.0 0.0 0.0 0.0 0.0
 0.0 0.0 0.0 0.0 0.0 0.0 -0.9400398314630187 -0.148026112353001
 0.0 0.0 0.0 0.0 -0.9400398314630187 -0.148026112353001 0.0 0.0
18.6007 0.0 0.0 -0.945351718304896 -0.10851664137437995 0.0 0.0 0.0 0.0
 -0.945351718304896 -0.10851664137437995 0.0 0.0 0.0 0.0 0.0 0.0
 0.0 0.0 0.0 0.0 0.0 0.0 -0.945351718304896 -0.10851664137437995
 0.0 0.0 0.0 0.0 -0.945351718304896 -0.10851664137437995 0.0 0.0
18.650675 0.0 0.0 -0.9490039828863449 -0.06882201455821134 0.0 0.0 0.0 0.0
 -0.9490039828863449 -0.06882201455821134 0.0 0.0 0.0 0.0 0.0 0.0
 0.0 0.0 0.0 0.0 0.0 0.0 -0.9490039828863449 -0.06882201455821134
 0.0 0.0 0.0 0.0 -0.9490039828863449 -0.06882201455821134 0.0 0.0
18.70065 0.0 0.0 -0.9509904377326653 -0.02901190604161223 0.0 0.0 0.0 0.0
 -0.9509904377326653 -0.02901190604161223 0.0 0.0 0.0 0.0 0.0 0.0
 0.0 0.0 0.0 0.0 0.0 0.0 -0.9509904377326653 -0.02901190604161223
 0.0 0.0 0.0 0.0 -0.9509904377326653 -0.02901190604161223 0.0 0.0
18.750625 0.0 0.0 -0.9513078187795438 0.01084381665639245 0.0 0.0 0.0 0.0
 -0.9513078187795438 0.01084381665639245 0.0 0.0 0.0 0.0 0.0 0.0
 0.0 0.0 0.0 0.0 0.0 0.0 -0.9513078187795438 0.01084381665639245
 0.0 0.0 0.0 0.0 -0.9513078187795438 0.01084381665639245 0.0 0.0
18.8006 0.0 0.0 -0.9499557907152508 0.0506752152278841 0.0 0.0 0.0 0.0
 -0.9499557907152508 0.0506752152278841 0.0 0.0 0.0 0.0 0.0 0.0
 0.0 0.0 0.0 0.0 0.0 0.0 -0.9499557907152508 0.0506752152278841
 0.0 0.0 0.0 0.0 -0.9499557907152508 0.0506752152278841 0.0 0.0
18.850575 0.0 0.0 -0.9469369471847491 0.09041240327727496 0.0 0.0 0.0 0.0
 -0.9469369471847491 0.09041240327727496 0.0 0.0 0.0 0.0 0.0 0.0
 0.0 0.0 0.0 0.0 0.0 0.0 -0.9469369471847491 0.09041240327727496
 0.0 0.0 0.0 0.0 -0.9469369471847491 0.09041240327727496 0.0 0.0
18.90055 0.0 0.0 -0.9422568058560197 0.12998566891557398 0.0 0.0 0.0 0.0
 -0.9422568058560197 0.12998566891557398 0.0 0.0 0.0 0.0 0.0 0.0
 0.0 0.0 0.0 0.0 0.0 0.0 -0.9422568058560197 0.12998566891557398
 0.0 0.0 0.0 0.0 -0.9422568058560197 0.12998566891557398 0.0 0.0
18.950525 0.0 0.0 -0.9359237983579147 0.1693255970326692 0.0 0.0 0.0 0.0
 -0.9359237983579147 0.1693255970326692 0.0 0.0 0.0 0.0 0.0 0.0
 0.0 0.0 0.0 0.0 0.0 0.0 -0.9359237983579147 0.1693255970326692
 0.0 0.0 0.0 0.0 -0.9359237983579147 0.1693255970326692 0.0 0.0
19.0005 0.0 0.0 -0.9279492551078402 0.20836319103319284 0.0 0.0 0.0 0.0
 -0.9279492551078402 0.20836319103319284 0.0 0.0 0.0 0.0 0.0 0.0
 0.0 0.0 0.0 0.0 0.0 0.0 -0.9279492551078402 0.20836319103319284
 0.0 0.0 0.0 0.0 -0.9279492551078402 0.20836319103319284 0.0 0.0
19.050475 0.0 0.0 -0.9183473850565336 0.2470299938225243 0.0 0.0 0.0 0.0
 -0.9183473850565336 0.2470299938225243 0.0 0.0 0.0 0.0 0.0 0.0
 0.0 0.0 0.0 0.0 0.0 0.0 -0.9183473850565336 0.2470299938225243
 0.0 0.0 0.0 0.0 -0.9183473850565336 0.2470299938225243 0.0 0.0
19.10045 0.0 0.0 -0.9071352503861122 0.28525820783081557 0.0 0.0 0.0 0.0
 -0.9071352503861122 0.28525820783081557 0.0 0.0 0.0 0.0 0.0 0.0
 0.0 0.0 0.0 0.0 0.0 0.0 -0.9071352503861122 0.28525820783081557
 0.0 0.0 0.0 0.0 -0.9071352503861122 0.28525820783081557 0.0 0.0
19.150425 0.0 0.0 -0.8943327362064106 0.3229808138646522 0.0 0.0 0.0 0.0
 -0.8943327362064106 0.3229808138646522 0.0 0.0 0.0 0.0 0.0 0.0
 0.0 0.0 0.0 0.0 0.0 0.0 -0.8943327362064106 0.3229808138646522
 0.0 0.0 0.0 0.0 -0.8943327362064106 0.3229808138646522 0.0 0.0
19.2004 0.0 0.0 -0.8799625153034055 0.3601316885779994 0.0 0.0 0.0 0.0
 -0.8799625153034055 0.3601316885779994 0.0 0.0 0.0 0.0 0.0 0.0
 0.0 0.0 0.0 0.0 0.0 0.0 -0.8799625153034055 0.3601316885779994
 0.0 0.0 0.0 0.0 -0.8799625153034055 0.3601316885779994 0.0 0.0
19.250375 0.0 0.0 -0.8640500080021707 0.3966457203566288 0.0 0.0 0.0 0.0
 -0.8640500080021707 0.3966457203566288 0.0 0.0 0.0 0.0 0.0 0.0
 0.0 0.0 0.0 0.0 0.0 0.0 -0.8640500080021707 0.3966457203566288
 0.0 0.0 0.0 0.0 -0.8640500080021707 0.3966457203566288 0.0 0.0
19.30035 0.0 0.0 -0.8466233372154002 0.4324589234128981 0.0 0.0 0.0 0.0
 -0.8466233372154002 0.4324589234128981 0.0 0.0 0.0 0.0 0.0 0.0
 0.0 0.0 0.0 0.0 0.0 0.0 -0.8466233372154002 0.4324589234128981
 0.0 0.0 0.0 0.0 -0.8466233372154002 0.4324589234128981 0.0 0.0
19.350325 0.0 0.0 -0.8277132787569481 0.4675085498910213 0.0 0.0 0.0 0.0
 -0.8277132787569481 0.4675085498910213 0.0 0.0 0.0 0.0 0.0 0.0
 0.0 0.0 0.0 0.0 0.0 0.0 -0.8277132787569481 0.4675085498910213
 0.0 0.0 0.0 0.0 -0.8277132787569481 0.4675085498910213 0.0 0.0
19.4003 0.0 0.0 -0.8073532070081293 0.5017331997864585 0.0 0.0 0.0 0.0
 -0.8073532070081293 0.5017331997864585 0.0 0.0 0.0 0.0 0.0 0.0
 0.0 0.0 0.0 0.0 0.0 0.0 -0.8073532070081293 0.5017331997864585
 0.0 0.0 0.0 0.0 -0.8073532070081293 0.5017331997864585 0.0 0.0
19.450275 0.0 0.0 -0.7855790360326713 0.53507292848689 0.0 0.0 0.0 0.0
 -0.7855790360326713 0.53507292848689 0.0 0.0 0.0 0.0 0.0 0.0
 0.0 0.0 0.0 0.0 0.0 0.0 -0.7855790360326713 0.53507292848689
 0.0 0.0 0.0 0.0 -0.7855790360326713 0.53507292848689 0.0 0.0
19.50025 0.0 0.0 -0.7624291562441994 0.5674693517464184 0.0 0.0 0.0 0.0
 -0.7624291562441994 0.5674693517464184 0.0 0.0 0.0 0.0 0.0 0.0
 0.0 0.0 0.0 0.0 0.0 0.0 -0.7624291562441994 0.5674693517464184
 0.0 0.0 0.0 0.0 -0.7624291562441994 0.5674693517464184 0.0 0.0
19.550225 0.0 0.0 -0.7379443667378602 0.5988657479092642 0.0 0.0 0.0 0.0
 -0.7379443667378602 0.5988657479092642 0.0 0.0 0.0 0.0 0.0 0.0
 0.0 0.0 0.0 0.0 0.0 0.0 -0.7379443667378602 0.5988657479092642
 0.0 0.0 0.0 0.0 -0.7379443667378602 0.5988657479092642 0.0 0.0
19.6002 0.0 0.0 -0.7121678034053639 0.6292071572039292 0.0 0.0 0.0 0.0
 -0.7121678034053639 0.6292071572039292 0.0 0.0 0.0 0.0 0.0 0.0
 0.0 0.0 0.0 0.0 0.0 0.0 -0.7121678034053639 0.6292071572039292
 0.0 0.0 0.0 0.0 -0.7121678034053639 0.6292071572039292 0.0 0.0
19.650175 0.0 0.0 -0.6851448629600446 0.6584404779340692 0.0 0.0 0.0 0.0
 -0.6851448629600446 0.6584404779340692 0.0 0.0 0.0 0.0 0.0 0.0
 0.0 0.0 0.0 0.0 0.0 0.0 -0.6851448629600446 0.6584404779340692
 0.0 0.0 0.0 0.0 -0.6851448629600446 0.6584404779340692 0.0 0.0
19.70015 0.0 0.0 -0.6569231230057092 0.6865145593977461 0.0 0.0 0.0 0.0
 -0.6569231230057092 0.6865145593977461 0.0 0.0 0.0 0.0 0.0 0.0
 0.0 0.0 0.0 0.0 0.0 0.0 -0.6569231230057092 0.6865145593977461
 0.0 0.0 0.0 0.0 -0.6569231230057092 0.6865145593977461 0.0 0.0
19.750125 0.0 0.0 -0.6275522582899804 0.7133802913724815 0.0 0.0 0.0 0.0
 -0.6275522582899804 0.7133802913724815 0.0 0.0 0.0 0.0 0.0 0.0
 0.0 0.0 0.0 0.0 0.0 0.0 -0.6275522582899804 0.7133802913724815
 0.0 0.0 0.0 0.0 -0.6275522582899804 0.7133802913724815 0.0 0.0
19.8001 0.0 0.0 -0.5970839532895147 0.7389906900095705 0.0 0.0 0.0 0.0
 -0.5970839532895147 0.7389906900095705 0.0 0.0 0.0 0.0 0.0 0.0
 0.0 0.0 0.0 0.0 0.0 0.0 -0.5970839532895147 0.7389906900095705
 0.0 0.0 0.0 0.0 -0.5970839532895147 0.7389906900095705 0.0 0.0
19.850075 0.0 0.0 -0.565571811280883 0.7633009799874554 0.0 0.0 0.0 0.0
 -0.565571811280883 0.7633009799874554 0.0 0.0 0.0 0.0 0.0 0.0
 0.0 0.0 0.0 0.0 0.0 0.0 -0.565571811280883 0.7633009799874554
 0.0 0.0 0.0 0.0 -0.565571811280883 0.7633009799874554 0.0 0.0
19.90005 0.0 0.0 -0.5330712600570149 0.7862686727805474 0.0 0.0 0.0 0.0
 -0.5330712600570149 0.7862686727805474 0.0 0.0 0.0 0.0 0.0 0.0
 0.0 0.0 0.0 0.0 0.0 0.0 -0.5330712600570149 0.7862686727805474
 0.0 0.0 0.0 0.0 -0.5330712600570149 0.7862686727805474 0.0 0.0
19.950025 0.0 0.0 -0.4996394544550541 0.8078536409066545 0.0 0.0 0.0 0.0
 -0.4996394544550541 0.8078536409066545 0.0 0.0 0.0 0.0 0.0 0.0
 0.0 0.0 0.0 0.0 0.0 0.0 -0.4996394544550541 0.8078536409066545
 0.0 0.0 0.0 0.0 -0.4996394544550541 0.8078536409066545 0.0 0.0
20.0 0.0 0.0 -0.46533517586696915 0.8280181880233105 0.0 0.0 0.0 0.0
 -0.46533517586696915 0.8280181880233105 0.0 0.0 0.0 0.0 0.0 0.0
 0.0 0.0 0.0 0.0 0.0 0.0 -0.46533517586696915 0.8280181880233105
 0.0 0.0 0.0 0.0 -0.46533517586696915 0.8280181880233105 0.0 0.0
